&CONTROL
   calculation = 'scf'
   prefix = 'si'
   pseudo_dir = '/home/valeria/Desktop/programs/dftpy/examples/ofpp/EAC/upf/blps/'
   restart_mode = 'from_scratch'
/

&SYSTEM
   ibrav = 0
   nat = 2
   degauss = 0.005
   ecutwfc = 60
   occupations = 'smearing'
   ntyp = 1
/

&ELECTRONS
/

&IONS
/

&CELL
/

&FCP
/

&RISM
/

ATOMIC_SPECIES
Si  28.08 si.lda.upf

K_POINTS automatic
20 20 20 1 1 1

CELL_PARAMETERS angstrom
4.13397931034483 0.00000000000000 0.00000000000000
1.26914337417325 3.93434365989440 0.00000000000000
-2.70156041457564 -1.96717115444426 2.43343253735940

ATOMIC_POSITIONS angstrom
Si   3.38572905517241 3.38572905517241 0.00000000000000
Si   0.74825025517241 0.74825025517241 0.00000000000000

