&CONTROL
   calculation = 'scf'
   prefix = 'si'
   pseudo_dir = '/home/valeria/Desktop/programs/dftpy/examples/ofpp/EAC/upf/blps/'
   restart_mode = 'from_scratch'
/

&SYSTEM
   ibrav = 0
   nat = 2
   degauss = 0.005
   ecutwfc = 60
   occupations = 'smearing'
   ntyp = 1
/

&ELECTRONS
/

&IONS
/

&CELL
/

&FCP
/

&RISM
/

ATOMIC_SPECIES
Si  28.08 si.lda.upf

K_POINTS automatic
20 20 20 1 1 1

CELL_PARAMETERS angstrom
4.38368275862069 0.00000000000000 0.00000000000000
1.34580304106962 4.17198857894842 0.00000000000000
-2.86474191612719 -2.08599357316908 2.58041839532071

ATOMIC_POSITIONS angstrom
Si   3.59023617931034 3.59023617931034 0.00000000000000
Si   0.79344657931034 0.79344657931034 0.00000000000000

