&CONTROL
   calculation = 'scf'
   prefix = 'si'
   pseudo_dir = '/home/valeria/Desktop/programs/dftpy/examples/ofpp/EAC/upf/blps/'
   restart_mode = 'from_scratch'
/

&SYSTEM
   ibrav = 0
   nat = 2
   degauss = 0.005
   ecutwfc = 60
   occupations = 'smearing'
   ntyp = 1
/

&ELECTRONS
/

&IONS
/

&CELL
/

&FCP
/

&RISM
/

ATOMIC_SPECIES
Si  28.08 si.lda.upf

K_POINTS automatic
20 20 20 1 1 1

CELL_PARAMETERS angstrom
4.55015172413793 0.00000000000000 0.00000000000000
1.39690948566720 4.33041852498444 0.00000000000000
-2.97352958382823 -2.16520851898562 2.67840896729491

ATOMIC_POSITIONS angstrom
Si   3.72657426206897 3.72657426206897 0.00000000000000
Si   0.82357746206897 0.82357746206897 0.00000000000000

