&CONTROL
   calculation = 'scf'
   prefix = 'si'
   pseudo_dir = '/home/valeria/Desktop/programs/dftpy/examples/ofpp/EAC/upf/blps/'
   restart_mode = 'from_scratch'
/

&SYSTEM
   ibrav = 0
   nat = 2
   degauss = 0.005
   ecutwfc = 60
   occupations = 'smearing'
   ntyp = 1
/

&ELECTRONS
/

&IONS
/

&CELL
/

&FCP
/

&RISM
/

ATOMIC_SPECIES
Si  28.08 si.lda.upf

K_POINTS automatic
20 20 20 1 1 1

CELL_PARAMETERS angstrom
4.79985517241379 0.00000000000000 0.00000000000000
1.47356915256357 4.56806344403846 0.00000000000000
-3.13671108537978 -2.28403093771044 2.82539482525622

ATOMIC_POSITIONS angstrom
Si   3.93108138620690 3.93108138620690 0.00000000000000
Si   0.86877378620690 0.86877378620690 0.00000000000000

