&CONTROL
   calculation = 'scf'
   prefix = 'si'
   pseudo_dir = '/home/valeria/Desktop/programs/dftpy/examples/ofpp/EAC/upf/blps/'
   restart_mode = 'from_scratch'
/

&SYSTEM
   ibrav = 0
   nat = 2
   degauss = 0.005
   ecutwfc = 60
   occupations = 'smearing'
   ntyp = 1
/

&ELECTRONS
/

&IONS
/

&CELL
/

&FCP
/

&RISM
/

ATOMIC_SPECIES
Si  28.08 si.lda.upf

K_POINTS automatic
20 20 20 1 1 1

CELL_PARAMETERS angstrom
4.88308965517241 0.00000000000000 0.00000000000000
1.49912237486236 4.64727841705647 0.00000000000000
-3.19110491923029 -2.32363841061872 2.87439011124332

ATOMIC_POSITIONS angstrom
Si   3.99925042758621 3.99925042758621 0.00000000000000
Si   0.88383922758621 0.88383922758621 0.00000000000000

