&CONTROL
   calculation = 'scf'
   prefix = 'si'
   pseudo_dir = '/home/valeria/Desktop/programs/dftpy/examples/ofpp/EAC/upf/blps/'
   restart_mode = 'from_scratch'
/

&SYSTEM
   ibrav = 0
   nat = 2
   degauss = 0.005
   ecutwfc = 60
   occupations = 'smearing'
   ntyp = 1
/

&ELECTRONS
/

&IONS
/

&CELL
/

&FCP
/

&RISM
/

ATOMIC_SPECIES
Si  28.08 si.lda.upf

K_POINTS automatic
20 20 20 1 1 1

CELL_PARAMETERS angstrom
4.96632413793103 0.00000000000000 0.00000000000000
1.52467559716115 4.72649339007448 0.00000000000000
-3.24549875308081 -2.36324588352699 2.92338539723042

ATOMIC_POSITIONS angstrom
Si   4.06741946896552 4.06741946896552 0.00000000000000
Si   0.89890466896552 0.89890466896552 0.00000000000000

