&CONTROL
   calculation = 'scf'
   prefix = 'si'
   pseudo_dir = '/home/valeria/Desktop/programs/dftpy/examples/ofpp/EAC/upf/blps/'
   restart_mode = 'from_scratch'
/

&SYSTEM
   ibrav = 0
   nat = 2
   degauss = 0.005
   ecutwfc = 60
   occupations = 'smearing'
   ntyp = 1
/

&ELECTRONS
/

&IONS
/

&CELL
/

&FCP
/

&RISM
/

ATOMIC_SPECIES
Si  28.08 si.lda.upf

K_POINTS automatic
20 20 20 1 1 1

CELL_PARAMETERS angstrom
5.04955862068965 0.00000000000000 0.00000000000000
1.55022881945994 4.80570836309248 0.00000000000000
-3.29989258693132 -2.40285335643526 2.97238068321752

ATOMIC_POSITIONS angstrom
Si   4.13558851034483 4.13558851034483 0.00000000000000
Si   0.91397011034483 0.91397011034483 0.00000000000000

