&CONTROL
   calculation = 'scf'
   prefix = 'si'
   pseudo_dir = '/home/valeria/Desktop/programs/dftpy/examples/ofpp/EAC/upf/blps/'
   restart_mode = 'from_scratch'
/

&SYSTEM
   ibrav = 0
   nat = 2
   degauss = 0.005
   ecutwfc = 60
   occupations = 'smearing'
   ntyp = 1
/

&ELECTRONS
/

&IONS
/

&CELL
/

&FCP
/

&RISM
/

ATOMIC_SPECIES
Si  28.08 si.lda.upf

K_POINTS automatic
20 20 20 1 1 1

CELL_PARAMETERS angstrom
5.29926206896552 0.00000000000000 0.00000000000000
1.62688848635631 5.04335328214651 0.00000000000000
-3.46307408848287 -2.52167577516009 3.11936654117883

ATOMIC_POSITIONS angstrom
Si   4.34009563448276 4.34009563448276 0.00000000000000
Si   0.95916643448276 0.95916643448276 0.00000000000000

