&CONTROL
   calculation = 'scf'
   prefix = 'si'
   pseudo_dir = '/home/valeria/Desktop/programs/dftpy/examples/ofpp/EAC/upf/blps/'
   restart_mode = 'from_scratch'
/

&SYSTEM
   ibrav = 0
   nat = 2
   degauss = 0.005
   ecutwfc = 60
   occupations = 'smearing'
   ntyp = 1
/

&ELECTRONS
/

&IONS
/

&CELL
/

&FCP
/

&RISM
/

ATOMIC_SPECIES
Si  28.08 si.lda.upf

K_POINTS automatic
20 20 20 1 1 1

CELL_PARAMETERS angstrom
5.46573103448276 0.00000000000000 0.00000000000000
1.67799493095389 5.20178322818252 0.00000000000000
-3.57186175618391 -2.60089072097663 3.21735711315303

ATOMIC_POSITIONS angstrom
Si   4.47643371724138 4.47643371724138 0.00000000000000
Si   0.98929731724138 0.98929731724138 0.00000000000000

