&CONTROL
   calculation = 'scf'
   prefix = 'si'
   pseudo_dir = '/home/valeria/Desktop/programs/dftpy/examples/ofpp/EAC/upf/blps/'
   restart_mode = 'from_scratch'
/

&SYSTEM
   ibrav = 0
   nat = 2
   degauss = 0.005
   ecutwfc = 60
   occupations = 'smearing'
   ntyp = 1
/

&ELECTRONS
/

&IONS
/

&CELL
/

&FCP
/

&RISM
/

ATOMIC_SPECIES
Si  28.08 si.lda.upf

K_POINTS automatic
20 20 20 1 1 1

CELL_PARAMETERS angstrom
5.63220000000000 0.00000000000000 0.00000000000000
1.72910137555147 5.36021317421854 0.00000000000000
-3.68064942388494 -2.68010566679318 3.31534768512724

ATOMIC_POSITIONS angstrom
Si   4.61277180000000 4.61277180000000 0.00000000000000
Si   1.01942820000000 1.01942820000000 0.00000000000000

