&CONTROL
   calculation = 'scf'
   prefix = 'si'
   pseudo_dir = '/home/valeria/Desktop/programs/dftpy/examples/ofpp/EAC/upf/blps/'
   restart_mode = 'from_scratch'
/

&SYSTEM
   ibrav = 0
   nat = 2
   degauss = 0.005
   ecutwfc = 60
   occupations = 'smearing'
   ntyp = 1
/

&ELECTRONS
/

&IONS
/

&CELL
/

&FCP
/

&RISM
/

ATOMIC_SPECIES
Si  28.08 si.lda.upf

K_POINTS automatic
20 20 20 1 1 1

CELL_PARAMETERS angstrom
3.46810344827586 0.00000000000000 0.00000000000000
1.06471759578293 3.30062387575033 0.00000000000000
-2.26640974377151 -1.65031137117807 2.04147024946259

ATOMIC_POSITIONS angstrom
Si   2.84037672413793 2.84037672413793 0.00000000000000
Si   0.62772672413793 0.62772672413793 0.00000000000000

