&CONTROL
   calculation = 'scf'
   prefix = 'si'
   pseudo_dir = '/home/valeria/Desktop/programs/dftpy/examples/ofpp/EAC/upf/blps/'
   restart_mode = 'from_scratch'
/

&SYSTEM
   ibrav = 0
   nat = 2
   degauss = 0.005
   ecutwfc = 60
   occupations = 'smearing'
   ntyp = 1
/

&ELECTRONS
/

&IONS
/

&CELL
/

&FCP
/

&RISM
/

ATOMIC_SPECIES
Si  28.08 si.lda.upf

K_POINTS automatic
20 20 20 1 1 1

CELL_PARAMETERS angstrom
3.55133793103448 0.00000000000000 0.00000000000000
1.09027081808172 3.37983884876834 0.00000000000000
-2.32080357762203 -1.68991884408634 2.09046553544969

ATOMIC_POSITIONS angstrom
Si   2.90854576551724 2.90854576551724 0.00000000000000
Si   0.64279216551724 0.64279216551724 0.00000000000000

