&CONTROL
   calculation = 'scf'
   prefix = 'si'
   pseudo_dir = '/home/valeria/Desktop/programs/dftpy/examples/ofpp/EAC/upf/blps/'
   restart_mode = 'from_scratch'
/

&SYSTEM
   ibrav = 0
   nat = 2
   degauss = 0.005
   ecutwfc = 60
   occupations = 'smearing'
   ntyp = 1
/

&ELECTRONS
/

&IONS
/

&CELL
/

&FCP
/

&RISM
/

ATOMIC_SPECIES
Si  28.08 si.lda.upf

K_POINTS automatic
20 20 20 1 1 1

CELL_PARAMETERS angstrom
3.80104137931034 0.00000000000000 0.00000000000000
1.16693048497809 3.61748376782236 0.00000000000000
-2.48398507917358 -1.80874126281116 2.23745139341099

ATOMIC_POSITIONS angstrom
Si   3.11305288965517 3.11305288965517 0.00000000000000
Si   0.68798848965517 0.68798848965517 0.00000000000000

