&CONTROL
   calculation = 'scf'
   prefix = 'si'
   pseudo_dir = '/home/valeria/Desktop/programs/dftpy/examples/ofpp/EAC/upf/blps/'
   restart_mode = 'from_scratch'
/

&SYSTEM
   ibrav = 0
   nat = 2
   degauss = 0.005
   ecutwfc = 60
   occupations = 'smearing'
   ntyp = 1
/

&ELECTRONS
/

&IONS
/

&CELL
/

&FCP
/

&RISM
/

ATOMIC_SPECIES
Si  28.08 si.lda.upf

K_POINTS automatic
20 20 20 1 1 1

CELL_PARAMETERS angstrom
3.88427586206897 0.00000000000000 0.00000000000000
1.19248370727688 3.69669874084037 0.00000000000000
-2.53837891302410 -1.84834873571943 2.28644667939810

ATOMIC_POSITIONS angstrom
Si   3.18122193103448 3.18122193103448 0.00000000000000
Si   0.70305393103448 0.70305393103448 0.00000000000000

