&CONTROL
   calculation = 'scf'
   prefix = 'si'
   pseudo_dir = '/home/valeria/Desktop/programs/dftpy/examples/ofpp/EAC/upf/blps/'
   restart_mode = 'from_scratch'
/

&SYSTEM
   ibrav = 0
   nat = 2
   degauss = 0.005
   ecutwfc = 60
   occupations = 'smearing'
   ntyp = 1
/

&ELECTRONS
/

&IONS
/

&CELL
/

&FCP
/

&RISM
/

ATOMIC_SPECIES
Si  28.08 si.lda.upf

K_POINTS automatic
20 20 20 1 1 1

CELL_PARAMETERS angstrom
3.96751034482759 0.00000000000000 0.00000000000000
1.21803692957567 3.77591371385838 0.00000000000000
-2.59277274687461 -1.88795620862771 2.33544196538520

ATOMIC_POSITIONS angstrom
Si   3.24939097241379 3.24939097241379 0.00000000000000
Si   0.71811937241379 0.71811937241379 0.00000000000000

