&CONTROL
   calculation = 'scf'
   prefix = 'si'
   pseudo_dir = '/home/valeria/Desktop/programs/dftpy/examples/ofpp/EAC/upf/blps/'
   restart_mode = 'from_scratch'
/

&SYSTEM
   ibrav = 0
   nat = 2
   degauss = 0.005
   ecutwfc = 60
   occupations = 'smearing'
   ntyp = 1
/

&ELECTRONS
/

&IONS
/

&CELL
/

&FCP
/

&RISM
/

ATOMIC_SPECIES
Si  28.08 si.lda.upf

K_POINTS automatic
20 20 20 1 1 1

CELL_PARAMETERS angstrom
1.28683052176081 -2.22885584442009 0.00000000000000
1.28683052176081 2.22885584442009 0.00000000000000
0.00000000000000 0.00000000000000 4.35088067448276

ATOMIC_POSITIONS angstrom
Si   1.28683052176081 0.74295194814003 1.08772016862069
Si   1.28683052176081 -0.74295194814003 3.26316050586207

