&CONTROL
   calculation = 'scf'
   prefix = 'si'
   pseudo_dir = '/home/valeria/Desktop/programs/dftpy/examples/ofpp/EAC/upf/blps/'
   restart_mode = 'from_scratch'
/

&SYSTEM
   ibrav = 0
   nat = 2
   degauss = 0.005
   ecutwfc = 60
   occupations = 'smearing'
   ntyp = 1
/

&ELECTRONS
/

&IONS
/

&CELL
/

&FCP
/

&RISM
/

ATOMIC_SPECIES
Si  28.08 si.lda.upf

K_POINTS automatic
20 20 20 1 1 1

CELL_PARAMETERS angstrom
1.64530473853703 -2.84975140107997 0.00000000000000
1.64530473853703 2.84975140107997 0.00000000000000
0.00000000000000 0.00000000000000 5.56291171951724

ATOMIC_POSITIONS angstrom
Si   1.64530473853703 0.94991713369332 1.39072792987931
Si   1.64530473853703 -0.94991713369332 4.17218378963793

