&CONTROL
   calculation = 'scf'
   prefix = 'si'
   pseudo_dir = '/home/valeria/Desktop/programs/dftpy/examples/ofpp/EAC/upf/blps/'
   restart_mode = 'from_scratch'
/

&SYSTEM
   ibrav = 0
   nat = 2
   degauss = 0.005
   ecutwfc = 60
   occupations = 'smearing'
   ntyp = 1
/

&ELECTRONS
/

&IONS
/

&CELL
/

&FCP
/

&RISM
/

ATOMIC_SPECIES
Si  28.08 si.lda.upf

K_POINTS automatic
20 20 20 1 1 1

CELL_PARAMETERS angstrom
1.86590425655317 -3.23184097440913 0.00000000000000
1.86590425655317 3.23184097440913 0.00000000000000
0.00000000000000 0.00000000000000 6.30877697800000

ATOMIC_POSITIONS angstrom
Si   1.86590425655317 1.07728032480304 1.57719424450000
Si   1.86590425655317 -1.07728032480304 4.73158273350000

