&CONTROL
   calculation = 'scf'
   prefix = 'si'
   pseudo_dir = '/home/valeria/Desktop/programs/dftpy/examples/ofpp/EAC/upf/blps/'
   restart_mode = 'from_scratch'
/

&SYSTEM
   ibrav = 0
   nat = 2
   degauss = 0.005
   ecutwfc = 60
   occupations = 'smearing'
   ntyp = 1
/

&ELECTRONS
/

&IONS
/

&CELL
/

&FCP
/

&RISM
/

ATOMIC_SPECIES
Si  28.08 si.lda.upf

K_POINTS automatic
20 20 20 1 1 1

CELL_PARAMETERS angstrom
1.59015485903300 -2.75422900774768 0.00000000000000
1.59015485903300 2.75422900774768 0.00000000000000
0.00000000000000 0.00000000000000 5.37644540489655

ATOMIC_POSITIONS angstrom
Si   1.59015485903300 0.91807633591589 1.34411135122414
Si   1.59015485903300 -0.91807633591589 4.03233405367241

