&CONTROL
   calculation = 'scf'
   prefix = 'si'
   pseudo_dir = '/home/valeria/Desktop/programs/dftpy/examples/ofpp/EAC/upf/blps/'
   restart_mode = 'from_scratch'
/

&SYSTEM
   ibrav = 0
   nat = 2
   degauss = 0.005
   ecutwfc = 60
   occupations = 'smearing'
   ntyp = 1
/

&ELECTRONS
/

&IONS
/

&CELL
/

&FCP
/

&RISM
/

ATOMIC_SPECIES
Si  28.08 si.lda.upf

K_POINTS automatic
20 20 20 1 1 1

CELL_PARAMETERS angstrom
1.56257991928098 -2.70646781108154 0.00000000000000
1.56257991928098 2.70646781108154 0.00000000000000
0.00000000000000 0.00000000000000 5.28321224758621

ATOMIC_POSITIONS angstrom
Si   1.56257991928098 0.90215593702718 1.32080306189655
Si   1.56257991928098 -0.90215593702718 3.96240918568965

