&CONTROL
   calculation = 'scf'
   prefix = 'si'
   pseudo_dir = '/home/valeria/Desktop/programs/dftpy/examples/ofpp/EAC/upf/blps/'
   restart_mode = 'from_scratch'
/

&SYSTEM
   ibrav = 0
   nat = 2
   degauss = 0.005
   ecutwfc = 60
   occupations = 'smearing'
   ntyp = 1
/

&ELECTRONS
/

&IONS
/

&CELL
/

&FCP
/

&RISM
/

ATOMIC_SPECIES
Si  28.08 si.lda.upf

K_POINTS automatic
20 20 20 1 1 1

CELL_PARAMETERS angstrom
1.09380594349669 -1.89452746775708 0.00000000000000
1.09380594349669 1.89452746775708 0.00000000000000
0.00000000000000 0.00000000000000 3.69824857331034

ATOMIC_POSITIONS angstrom
Si   1.09380594349669 0.63150915591903 0.92456214332759
Si   1.09380594349669 -0.63150915591903 2.77368642998276

