&CONTROL
   calculation = 'scf'
   prefix = 'si'
   pseudo_dir = '/home/valeria/Desktop/programs/dftpy/examples/ofpp/EAC/upf/blps/'
   restart_mode = 'from_scratch'
/

&SYSTEM
   ibrav = 0
   nat = 2
   degauss = 0.005
   ecutwfc = 60
   occupations = 'smearing'
   ntyp = 1
/

&ELECTRONS
/

&IONS
/

&CELL
/

&FCP
/

&RISM
/

ATOMIC_SPECIES
Si  28.08 si.lda.upf

K_POINTS automatic
20 20 20 1 1 1

CELL_PARAMETERS angstrom
1.78317943729712 -3.08855738441069 0.00000000000000
1.78317943729712 3.08855738441069 0.00000000000000
0.00000000000000 0.00000000000000 6.02907750606897

ATOMIC_POSITIONS angstrom
Si   1.78317943729712 1.02951912813690 1.50726937651724
Si   1.78317943729712 -1.02951912813690 4.52180812955172

