&CONTROL
   calculation = 'scf'
   prefix = 'si'
   pseudo_dir = '/home/valeria/Desktop/programs/dftpy/examples/ofpp/EAC/upf/blps/'
   restart_mode = 'from_scratch'
/

&SYSTEM
   ibrav = 0
   nat = 2
   degauss = 0.005
   ecutwfc = 60
   occupations = 'smearing'
   ntyp = 1
/

&ELECTRONS
/

&IONS
/

&CELL
/

&FCP
/

&RISM
/

ATOMIC_SPECIES
Si  28.08 si.lda.upf

K_POINTS automatic
20 20 20 1 1 1

CELL_PARAMETERS angstrom
1.72802955779309 -2.99303499107840 0.00000000000000
1.72802955779309 2.99303499107840 0.00000000000000
0.00000000000000 0.00000000000000 5.84261119144828

ATOMIC_POSITIONS angstrom
Si   1.72802955779309 0.99767833035947 1.46065279786207
Si   1.72802955779309 -0.99767833035947 4.38195839358621

