&CONTROL
   calculation = 'scf'
   prefix = 'si'
   pseudo_dir = '/home/valeria/Desktop/programs/dftpy/examples/ofpp/EAC/upf/blps/'
   restart_mode = 'from_scratch'
/

&SYSTEM
   ibrav = 0
   nat = 2
   degauss = 0.005
   ecutwfc = 60
   occupations = 'smearing'
   ntyp = 1
/

&ELECTRONS
/

&IONS
/

&CELL
/

&FCP
/

&RISM
/

ATOMIC_SPECIES
Si  28.08 si.lda.upf

K_POINTS automatic
20 20 20 1 1 1

CELL_PARAMETERS angstrom
1.06623100374467 -1.84676627109093 0.00000000000000
1.06623100374467 1.84676627109093 0.00000000000000
0.00000000000000 0.00000000000000 3.60501541600000

ATOMIC_POSITIONS angstrom
Si   1.06623100374467 0.61558875703031 0.90125385400000
Si   1.06623100374467 -0.61558875703031 2.70376156200000

