&CONTROL
   calculation = 'scf'
   prefix = 'si'
   pseudo_dir = '/home/valeria/Desktop/programs/dftpy/examples/ofpp/EAC/upf/blps/'
   restart_mode = 'from_scratch'
/

&SYSTEM
   ibrav = 0
   nat = 2
   degauss = 0.005
   ecutwfc = 60
   occupations = 'smearing'
   ntyp = 1
/

&ELECTRONS
/

&IONS
/

&CELL
/

&FCP
/

&RISM
/

ATOMIC_SPECIES
Si  28.08 si.lda.upf

K_POINTS automatic
20 20 20 1 1 1

CELL_PARAMETERS angstrom
1.23168064225677 -2.13333345108780 0.00000000000000
1.23168064225677 2.13333345108780 0.00000000000000
0.00000000000000 0.00000000000000 4.16441435986207

ATOMIC_POSITIONS angstrom
Si   1.23168064225677 0.71111115036260 1.04110358996552
Si   1.23168064225677 -0.71111115036260 3.12331076989655

