&CONTROL
   calculation = 'scf'
   prefix = 'si'
   pseudo_dir = '/home/valeria/Desktop/programs/dftpy/examples/ofpp/EAC/upf/blps/'
   restart_mode = 'from_scratch'
/

&SYSTEM
   ibrav = 0
   nat = 2
   degauss = 0.005
   ecutwfc = 60
   occupations = 'smearing'
   ntyp = 1
/

&ELECTRONS
/

&IONS
/

&CELL
/

&FCP
/

&RISM
/

ATOMIC_SPECIES
Si  28.08 si.lda.upf

K_POINTS automatic
20 20 20 1 1 1

CELL_PARAMETERS angstrom
1.25925558200879 -2.18109464775394 0.00000000000000
1.25925558200879 2.18109464775394 0.00000000000000
0.00000000000000 0.00000000000000 4.25764751717241

ATOMIC_POSITIONS angstrom
Si   1.25925558200879 0.72703154925131 1.06441187929310
Si   1.25925558200879 -0.72703154925131 3.19323563787931

