&CONTROL
   calculation = 'scf'
   prefix = 'si'
   pseudo_dir = '/home/valeria/Desktop/programs/dftpy/examples/ofpp/EAC/upf/blps/'
   restart_mode = 'from_scratch'
/

&SYSTEM
   ibrav = 0
   nat = 2
   degauss = 0.005
   ecutwfc = 60
   occupations = 'smearing'
   ntyp = 1
/

&ELECTRONS
/

&IONS
/

&CELL
/

&FCP
/

&RISM
/

ATOMIC_SPECIES
Si  28.08 si.lda.upf

K_POINTS automatic
20 20 20 1 1 1

CELL_PARAMETERS angstrom
1.83832931680116 -3.18407977774298 0.00000000000000
1.83832931680116 3.18407977774298 0.00000000000000
0.00000000000000 0.00000000000000 6.21554382068966

ATOMIC_POSITIONS angstrom
Si   1.83832931680116 1.06135992591433 1.55388595517241
Si   1.83832931680116 -1.06135992591433 4.66165786551724

