&CONTROL
   calculation = 'scf'
   prefix = 'si'
   pseudo_dir = '/home/valeria/Desktop/programs/dftpy/examples/ofpp/EAC/upf/blps/'
   restart_mode = 'from_scratch'
/

&SYSTEM
   ibrav = 0
   nat = 2
   degauss = 0.005
   ecutwfc = 60
   occupations = 'smearing'
   ntyp = 1
/

&ELECTRONS
/

&IONS
/

&CELL
/

&FCP
/

&RISM
/

ATOMIC_SPECIES
Si  28.08 si.lda.upf

K_POINTS automatic
20 20 20 1 1 1

CELL_PARAMETERS angstrom
1.61772979878502 -2.80199020441383 0.00000000000000
1.61772979878502 2.80199020441383 0.00000000000000
0.00000000000000 0.00000000000000 5.46967856220690

ATOMIC_POSITIONS angstrom
Si   1.61772979878502 0.93399673480461 1.36741964055172
Si   1.61772979878502 -0.93399673480461 4.10225892165517

