&CONTROL
   calculation = 'scf'
   prefix = 'si'
   pseudo_dir = '/home/valeria/Desktop/programs/dftpy/examples/ofpp/EAC/upf/blps/'
   restart_mode = 'from_scratch'
/

&SYSTEM
   ibrav = 0
   nat = 2
   degauss = 0.005
   ecutwfc = 60
   occupations = 'smearing'
   ntyp = 1
/

&ELECTRONS
/

&IONS
/

&CELL
/

&FCP
/

&RISM
/

ATOMIC_SPECIES
Si  28.08 si.lda.upf

K_POINTS automatic
20 20 20 1 1 1

CELL_PARAMETERS angstrom
1.36955534101686 -2.37213943441852 0.00000000000000
1.36955534101686 2.37213943441852 0.00000000000000
0.00000000000000 0.00000000000000 4.63058014641379

ATOMIC_POSITIONS angstrom
Si   1.36955534101686 0.79071314480617 1.15764503660345
Si   1.36955534101686 -0.79071314480617 3.47293510981034

