&CONTROL
   calculation = 'scf'
   prefix = 'si'
   pseudo_dir = '/home/valeria/Desktop/programs/dftpy/examples/ofpp/EAC/upf/blps/'
   restart_mode = 'from_scratch'
/

&SYSTEM
   ibrav = 0
   nat = 2
   degauss = 0.005
   ecutwfc = 60
   occupations = 'smearing'
   ntyp = 1
/

&ELECTRONS
/

&IONS
/

&CELL
/

&FCP
/

&RISM
/

ATOMIC_SPECIES
Si  28.08 si.lda.upf

K_POINTS automatic
20 20 20 1 1 1

CELL_PARAMETERS angstrom
1.67287967828905 -2.89751259774611 0.00000000000000
1.67287967828905 2.89751259774611 0.00000000000000
0.00000000000000 0.00000000000000 5.65614487682759

ATOMIC_POSITIONS angstrom
Si   1.67287967828905 0.96583753258204 1.41403621920690
Si   1.67287967828905 -0.96583753258204 4.24210865762069

