&CONTROL
   calculation = 'scf'
   prefix = 'si'
   pseudo_dir = '/home/valeria/Desktop/programs/dftpy/examples/ofpp/EAC/upf/blps/'
   restart_mode = 'from_scratch'
/

&SYSTEM
   ibrav = 0
   nat = 2
   degauss = 0.005
   ecutwfc = 60
   occupations = 'smearing'
   ntyp = 1
/

&ELECTRONS
/

&IONS
/

&CELL
/

&FCP
/

&RISM
/

ATOMIC_SPECIES
Si  28.08 si.lda.upf

K_POINTS automatic
20 20 20 1 1 1

CELL_PARAMETERS angstrom
1.17653076275274 -2.03781105775551 0.00000000000000
1.17653076275274 2.03781105775551 0.00000000000000
0.00000000000000 0.00000000000000 3.97794804524138

ATOMIC_POSITIONS angstrom
Si   1.17653076275274 0.67927035258517 0.99448701131034
Si   1.17653076275274 -0.67927035258517 2.98346103393103

