&CONTROL
   calculation = 'scf'
   prefix = 'si'
   pseudo_dir = '/home/valeria/Desktop/programs/dftpy/examples/ofpp/EAC/upf/blps/'
   restart_mode = 'from_scratch'
/

&SYSTEM
   ibrav = 0
   nat = 2
   degauss = 0.005
   ecutwfc = 60
   occupations = 'smearing'
   ntyp = 1
/

&ELECTRONS
/

&IONS
/

&CELL
/

&FCP
/

&RISM
/

ATOMIC_SPECIES
Si  28.08 si.lda.upf

K_POINTS automatic
20 20 20 1 1 1

CELL_PARAMETERS angstrom
1.20410570250476 -2.08557225442165 0.00000000000000
1.20410570250476 2.08557225442165 0.00000000000000
0.00000000000000 0.00000000000000 4.07118120255172

ATOMIC_POSITIONS angstrom
Si   1.20410570250476 0.69519075147388 1.01779530063793
Si   1.20410570250476 -0.69519075147388 3.05338590191379

