&CONTROL
   calculation = 'scf'
   prefix = 'si'
   pseudo_dir = '/home/valeria/Desktop/programs/dftpy/examples/ofpp/EAC/upf/blps/'
   restart_mode = 'from_scratch'
/

&SYSTEM
   ibrav = 0
   nat = 2
   degauss = 0.005
   ecutwfc = 60
   occupations = 'smearing'
   ntyp = 1
/

&ELECTRONS
/

&IONS
/

&CELL
/

&FCP
/

&RISM
/

ATOMIC_SPECIES
Si  28.08 si.lda.upf

K_POINTS automatic
20 20 20 1 1 1

CELL_PARAMETERS angstrom
1.50743003977695 -2.61094541774925 0.00000000000000
1.50743003977695 2.61094541774925 0.00000000000000
0.00000000000000 0.00000000000000 5.09674593296552

ATOMIC_POSITIONS angstrom
Si   1.50743003977695 0.87031513924975 1.27418648324138
Si   1.50743003977695 -0.87031513924975 3.82255944972414

