&CONTROL
   calculation = 'scf'
   prefix = 'si'
   pseudo_dir = '/home/valeria/Desktop/programs/dftpy/examples/ofpp/EAC/upf/blps/'
   restart_mode = 'from_scratch'
/

&SYSTEM
   ibrav = 0
   nat = 2
   degauss = 0.005
   ecutwfc = 60
   occupations = 'smearing'
   ntyp = 1
/

&ELECTRONS
/

&IONS
/

&CELL
/

&FCP
/

&RISM
/

ATOMIC_SPECIES
Si  28.08 si.lda.upf

K_POINTS automatic
20 20 20 1 1 1

CELL_PARAMETERS angstrom
1.45228016027291 -2.51542302441696 0.00000000000000
1.45228016027291 2.51542302441696 0.00000000000000
0.00000000000000 0.00000000000000 4.91027961834483

ATOMIC_POSITIONS angstrom
Si   1.45228016027291 0.83847434147232 1.22756990458621
Si   1.45228016027291 -0.83847434147232 3.68270971375862

