&CONTROL
   calculation = 'scf'
   prefix = 'si'
   pseudo_dir = '/home/valeria/Desktop/programs/dftpy/examples/ofpp/EAC/upf/blps/'
   restart_mode = 'from_scratch'
/

&SYSTEM
   ibrav = 0
   nat = 2
   degauss = 0.005
   ecutwfc = 60
   occupations = 'smearing'
   ntyp = 1
/

&ELECTRONS
/

&IONS
/

&CELL
/

&FCP
/

&RISM
/

ATOMIC_SPECIES
Si  28.08 si.lda.upf

K_POINTS automatic
20 20 20 1 1 1

CELL_PARAMETERS angstrom
1.42470522052090 -2.46766182775081 0.00000000000000
1.42470522052090 2.46766182775081 0.00000000000000
0.00000000000000 0.00000000000000 4.81704646103448

ATOMIC_POSITIONS angstrom
Si   1.42470522052090 0.82255394258360 1.20426161525862
Si   1.42470522052090 -0.82255394258360 3.61278484577586

