&CONTROL
   calculation = 'scf'
   prefix = 'si'
   pseudo_dir = '/home/valeria/Desktop/programs/dftpy/examples/ofpp/EAC/upf/blps/'
   restart_mode = 'from_scratch'
/

&SYSTEM
   ibrav = 0
   nat = 2
   degauss = 0.005
   ecutwfc = 60
   occupations = 'smearing'
   ntyp = 1
/

&ELECTRONS
/

&IONS
/

&CELL
/

&FCP
/

&RISM
/

ATOMIC_SPECIES
Si  28.08 si.lda.upf

K_POINTS automatic
20 20 20 1 1 1

CELL_PARAMETERS angstrom
1.53500497952896 -2.65870661441539 0.00000000000000
1.53500497952896 2.65870661441539 0.00000000000000
0.00000000000000 0.00000000000000 5.18997909027586

ATOMIC_POSITIONS angstrom
Si   1.53500497952896 0.88623553813846 1.29749477256897
Si   1.53500497952896 -0.88623553813846 3.89248431770690

