&CONTROL
   calculation = 'scf'
   prefix = 'si_0.5_10_4_Btin_hd'
   pseudo_dir = '/home/vr371/Projects/PP/ofpp/EAC/upf/blps/'
   restart_mode = 'from_scratch'
/

&SYSTEM
   ibrav = 0
   nat = 4
   degauss = 0.005
   ecutwfc = 60
   occupations = 'smearing'
   ntyp = 1
/

&ELECTRONS
/

&IONS
/

&CELL
/

&FCP
/

&RISM
/

ATOMIC_SPECIES
Si  28.08 si.lda.upf

K_POINTS automatic
20 20 20 1 1 1

CELL_PARAMETERS angstrom
4.33811216417931 0.00000801803440 -0.00000000000020
-0.95825603481949 4.08135042992888 -0.00000000000394
-0.00000000000033 -0.00000000000766 4.48520439109741

ATOMIC_POSITIONS angstrom
Si   -0.09245280134447 0.99434309760318 1.51523226416215
Si   2.17234560119966 1.72557862677301 0.62345179370305
Si   0.09246234328504 2.42947415845872 3.54490190868930
Si   2.16577090868218 0.59173480617980 2.61975385011479

