&CONTROL
   calculation = 'scf'
   prefix = 'si_0.5_17_4_Btin_hd'
   pseudo_dir = '/home/vr371/Projects/PP/ofpp/EAC/upf/blps/'
   restart_mode = 'from_scratch'
/

&SYSTEM
   ibrav = 0
   nat = 4
   degauss = 0.005
   ecutwfc = 60
   occupations = 'smearing'
   ntyp = 1
/

&ELECTRONS
/

&IONS
/

&CELL
/

&FCP
/

&RISM
/

ATOMIC_SPECIES
Si  28.08 si.lda.upf

K_POINTS automatic
20 20 20 1 1 1

CELL_PARAMETERS angstrom
4.96208720149277 0.00000917131332 -0.00000000000023
-1.09608738229353 4.66839398491865 -0.00000000000450
-0.00000000000038 -0.00000000000876 5.13033652954292

ATOMIC_POSITIONS angstrom
Si   -0.10575080701731 1.13736504999815 1.73317663092520
Si   2.48480626986537 1.97377829226775 0.71312636676993
Si   0.10576172142878 2.77891907166168 4.05478505993913
Si   2.47728590239674 0.67684734679470 2.99656776006281

