&CONTROL
   calculation = 'scf'
   prefix = 'si_0.5_27_4_Btin_hd'
   pseudo_dir = '/home/vr371/Projects/PP/ofpp/EAC/upf/blps/'
   restart_mode = 'from_scratch'
/

&SYSTEM
   ibrav = 0
   nat = 4
   degauss = 0.005
   ecutwfc = 60
   occupations = 'smearing'
   ntyp = 1
/

&ELECTRONS
/

&IONS
/

&CELL
/

&FCP
/

&RISM
/

ATOMIC_SPECIES
Si  28.08 si.lda.upf

K_POINTS automatic
20 20 20 1 1 1

CELL_PARAMETERS angstrom
5.85348011194057 0.00001081885464 -0.00000000000027
-1.29298930725644 5.50702763490404 -0.00000000000531
-0.00000000000045 -0.00000000001034 6.05195387017937

ATOMIC_POSITIONS angstrom
Si   -0.12474795797850 1.34168212484812 2.04452572630099
Si   2.93117865367352 2.32834924297454 0.84123289972261
Si   0.12476083306269 3.27812609052306 4.78318956172460
Si   2.92230732198897 0.79843669053028 3.53487334570284

