&CONTROL
   calculation = 'scf'
   prefix = 'si_0.5_20_4_Btin_hd'
   pseudo_dir = '/home/vr371/Projects/PP/ofpp/EAC/upf/blps/'
   restart_mode = 'from_scratch'
/

&SYSTEM
   ibrav = 0
   nat = 4
   degauss = 0.005
   ecutwfc = 60
   occupations = 'smearing'
   ntyp = 1
/

&ELECTRONS
/

&IONS
/

&CELL
/

&FCP
/

&RISM
/

ATOMIC_SPECIES
Si  28.08 si.lda.upf

K_POINTS automatic
20 20 20 1 1 1

CELL_PARAMETERS angstrom
5.22950507462711 0.00000966557572 -0.00000000000024
-1.15515795978240 4.91998407991427 -0.00000000000475
-0.00000000000040 -0.00000000000924 5.40682173173386

ATOMIC_POSITIONS angstrom
Si   -0.11144995230567 1.19866017245314 1.82658135953794
Si   2.61871798500781 2.08014957747979 0.75155832665573
Si   0.11146145491895 2.92868117732010 4.27330641047477
Si   2.61079232827441 0.71332414991537 3.15805943575482

