&CONTROL
   calculation = 'scf'
   prefix = 'si_0.5_13_4_Btin_hd'
   pseudo_dir = '/home/vr371/Projects/PP/ofpp/EAC/upf/blps/'
   restart_mode = 'from_scratch'
/

&SYSTEM
   ibrav = 0
   nat = 4
   degauss = 0.005
   ecutwfc = 60
   occupations = 'smearing'
   ntyp = 1
/

&ELECTRONS
/

&IONS
/

&CELL
/

&FCP
/

&RISM
/

ATOMIC_SPECIES
Si  28.08 si.lda.upf

K_POINTS automatic
20 20 20 1 1 1

CELL_PARAMETERS angstrom
4.60553003731365 0.00000851229680 -0.00000000000021
-1.01732661230837 4.33294052492450 -0.00000000000418
-0.00000000000035 -0.00000000000813 4.76168959328834

ATOMIC_POSITIONS angstrom
Si   -0.09815194663283 1.05563822005817 1.60863699277489
Si   2.30625731634211 1.83194991198504 0.66188375358885
Si   0.09816207677521 2.57923626411713 3.76342325922494
Si   2.29927733455985 0.62821160930047 2.78124552580680

