&CONTROL
   calculation = 'scf'
   prefix = 'si_0.5_6_4_Btin_hd'
   pseudo_dir = '/home/vr371/Projects/PP/ofpp/EAC/upf/blps/'
   restart_mode = 'from_scratch'
/

&SYSTEM
   ibrav = 0
   nat = 4
   degauss = 0.005
   ecutwfc = 60
   occupations = 'smearing'
   ntyp = 1
/

&ELECTRONS
/

&IONS
/

&CELL
/

&FCP
/

&RISM
/

ATOMIC_SPECIES
Si  28.08 si.lda.upf

K_POINTS automatic
20 20 20 1 1 1

CELL_PARAMETERS angstrom
3.98155500000019 0.00000735901788 -0.00000000000018
-0.87949526483433 3.74589696993473 -0.00000000000361
-0.00000000000030 -0.00000000000703 4.11655745484282

ATOMIC_POSITIONS angstrom
Si   -0.08485394096000 0.91261626766319 1.39069262601184
Si   1.99379664767640 1.58375024649029 0.57220918052198
Si   0.08486269863148 2.22979135091416 3.25354010797511
Si   1.98776234084529 0.54309906868557 2.40443161585878

