&CONTROL
   calculation = 'scf'
   prefix = 'si_0.5_23_4_Btin_hd'
   pseudo_dir = '/home/vr371/Projects/PP/ofpp/EAC/upf/blps/'
   restart_mode = 'from_scratch'
/

&SYSTEM
   ibrav = 0
   nat = 4
   degauss = 0.005
   ecutwfc = 60
   occupations = 'smearing'
   ntyp = 1
/

&ELECTRONS
/

&IONS
/

&CELL
/

&FCP
/

&RISM
/

ATOMIC_SPECIES
Si  28.08 si.lda.upf

K_POINTS automatic
20 20 20 1 1 1

CELL_PARAMETERS angstrom
5.49692294776145 0.00001015983811 -0.00000000000026
-1.21422853727128 5.17157417490989 -0.00000000000499
-0.00000000000042 -0.00000000000971 5.68330693392479

ATOMIC_POSITIONS angstrom
Si   -0.11714909759402 1.25995529490813 1.91998608815067
Si   2.75262970015026 2.18652086269182 0.78999028654154
Si   0.11716118840913 3.07844328297851 4.49182776101041
Si   2.74429875415208 0.74980095303605 3.31955111144683

