&CONTROL
   calculation = 'scf'
   prefix = 'si_0.5_29_4_Btin_hd'
   pseudo_dir = '/home/vr371/Projects/PP/ofpp/EAC/upf/blps/'
   restart_mode = 'from_scratch'
/

&SYSTEM
   ibrav = 0
   nat = 4
   degauss = 0.005
   ecutwfc = 60
   occupations = 'smearing'
   ntyp = 1
/

&ELECTRONS
/

&IONS
/

&CELL
/

&FCP
/

&RISM
/

ATOMIC_SPECIES
Si  28.08 si.lda.upf

K_POINTS automatic
20 20 20 1 1 1

CELL_PARAMETERS angstrom
6.03175869403013 0.00001114836290 -0.00000000000028
-1.33236969224902 5.67475436490112 -0.00000000000547
-0.00000000000046 -0.00000000001065 6.23627733830667

ATOMIC_POSITIONS angstrom
Si   -0.12854738817074 1.38254553981811 2.10679554537614
Si   3.02045313043515 2.39926343311589 0.86685420631314
Si   0.12856065538947 3.37796749429534 4.92887046208169
Si   3.01131160590742 0.82275455927739 3.64253446283084

