&CONTROL
   calculation = 'scf'
   prefix = 'si_0.5_15_4_Btin_hd'
   pseudo_dir = '/home/vr371/Projects/PP/ofpp/EAC/upf/blps/'
   restart_mode = 'from_scratch'
/

&SYSTEM
   ibrav = 0
   nat = 4
   degauss = 0.005
   ecutwfc = 60
   occupations = 'smearing'
   ntyp = 1
/

&ELECTRONS
/

&IONS
/

&CELL
/

&FCP
/

&RISM
/

ATOMIC_SPECIES
Si  28.08 si.lda.upf

K_POINTS automatic
20 20 20 1 1 1

CELL_PARAMETERS angstrom
4.78380861940321 0.00000884180506 -0.00000000000022
-1.05670699730095 4.50066725492158 -0.00000000000434
-0.00000000000037 -0.00000000000845 4.94601306141563

ATOMIC_POSITIONS angstrom
Si   -0.10195137682507 1.09650163502816 1.67090681185005
Si   2.39553179310374 1.90286410212640 0.68750506017939
Si   0.10196189910200 2.67907766788941 3.90910415958203
Si   2.38828161847830 0.65252947804759 2.88890664293481

