&CONTROL
   calculation = 'scf'
   prefix = 'si_0.5_26_4_Btin_hd'
   pseudo_dir = '/home/vr371/Projects/PP/ofpp/EAC/upf/blps/'
   restart_mode = 'from_scratch'
/

&SYSTEM
   ibrav = 0
   nat = 4
   degauss = 0.005
   ecutwfc = 60
   occupations = 'smearing'
   ntyp = 1
/

&ELECTRONS
/

&IONS
/

&CELL
/

&FCP
/

&RISM
/

ATOMIC_SPECIES
Si  28.08 si.lda.upf

K_POINTS automatic
20 20 20 1 1 1

CELL_PARAMETERS angstrom
5.76434082089579 0.00001065410051 -0.00000000000027
-1.27329911476015 5.42316426990550 -0.00000000000523
-0.00000000000044 -0.00000000001018 5.95979213611573

ATOMIC_POSITIONS angstrom
Si   -0.12284824288238 1.32125041736312 2.01339081676341
Si   2.88654141529270 2.29289214790386 0.82842224642734
Si   0.12286092189930 3.22820538863692 4.71034911154605
Si   2.87780518002975 0.78627775615672 3.48104278713884

