&CONTROL
   calculation = 'scf'
   prefix = 'si_0.5_11_4_Btin_hd'
   pseudo_dir = '/home/vr371/Projects/PP/ofpp/EAC/upf/blps/'
   restart_mode = 'from_scratch'
/

&SYSTEM
   ibrav = 0
   nat = 4
   degauss = 0.005
   ecutwfc = 60
   occupations = 'smearing'
   ntyp = 1
/

&ELECTRONS
/

&IONS
/

&CELL
/

&FCP
/

&RISM
/

ATOMIC_SPECIES
Si  28.08 si.lda.upf

K_POINTS automatic
20 20 20 1 1 1

CELL_PARAMETERS angstrom
4.42725145522409 0.00000818278854 -0.00000000000021
-0.97794622731578 4.16521379492742 -0.00000000000402
-0.00000000000034 -0.00000000000782 4.57736612516105

ATOMIC_POSITIONS angstrom
Si   -0.09435251644059 1.01477480508817 1.54636717369973
Si   2.21698283958048 1.76103572184368 0.63626244699832
Si   0.09436225444843 2.47939486034485 3.61774235886784
Si   2.21027305064140 0.60389374055336 2.67358440867880

