&CONTROL
   calculation = 'scf'
   prefix = 'si_0.5_16_4_Btin_hd'
   pseudo_dir = '/home/vr371/Projects/PP/ofpp/EAC/upf/blps/'
   restart_mode = 'from_scratch'
/

&SYSTEM
   ibrav = 0
   nat = 4
   degauss = 0.005
   ecutwfc = 60
   occupations = 'smearing'
   ntyp = 1
/

&ELECTRONS
/

&IONS
/

&CELL
/

&FCP
/

&RISM
/

ATOMIC_SPECIES
Si  28.08 si.lda.upf

K_POINTS automatic
20 20 20 1 1 1

CELL_PARAMETERS angstrom
4.87294791044799 0.00000900655919 -0.00000000000023
-1.07639718979724 4.58453061992012 -0.00000000000442
-0.00000000000037 -0.00000000000861 5.03817479547928

ATOMIC_POSITIONS angstrom
Si   -0.10385109192119 1.11693334251316 1.70204172138762
Si   2.44016903148455 1.93832119719708 0.70031571347466
Si   0.10386181026539 2.72899836977554 3.98194460976058
Si   2.43278376043752 0.66468841242114 2.94273720149881

