&CONTROL
   calculation = 'scf'
   prefix = 'si_0.5_14_4_Btin_hd'
   pseudo_dir = '/home/vr371/Projects/PP/ofpp/EAC/upf/blps/'
   restart_mode = 'from_scratch'
/

&SYSTEM
   ibrav = 0
   nat = 4
   degauss = 0.005
   ecutwfc = 60
   occupations = 'smearing'
   ntyp = 1
/

&ELECTRONS
/

&IONS
/

&CELL
/

&FCP
/

&RISM
/

ATOMIC_SPECIES
Si  28.08 si.lda.upf

K_POINTS automatic
20 20 20 1 1 1

CELL_PARAMETERS angstrom
4.69466932835843 0.00000867705093 -0.00000000000022
-1.03701680480466 4.41680388992304 -0.00000000000426
-0.00000000000036 -0.00000000000829 4.85385132735199

ATOMIC_POSITIONS angstrom
Si   -0.10005166172895 1.07606992754316 1.63977190231247
Si   2.35089455472292 1.86740700705572 0.67469440688412
Si   0.10006198793861 2.62915696600327 3.83626370940348
Si   2.34377947651907 0.64037054367403 2.83507608437080

