&CONTROL
   calculation = 'scf'
   prefix = 'si_0.5_25_4_Btin_hd'
   pseudo_dir = '/home/vr371/Projects/PP/ofpp/EAC/upf/blps/'
   restart_mode = 'from_scratch'
/

&SYSTEM
   ibrav = 0
   nat = 4
   degauss = 0.005
   ecutwfc = 60
   occupations = 'smearing'
   ntyp = 1
/

&ELECTRONS
/

&IONS
/

&CELL
/

&FCP
/

&RISM
/

ATOMIC_SPECIES
Si  28.08 si.lda.upf

K_POINTS automatic
20 20 20 1 1 1

CELL_PARAMETERS angstrom
5.67520152985101 0.00001048934638 -0.00000000000026
-1.25360892226386 5.33930090490696 -0.00000000000515
-0.00000000000043 -0.00000000001002 5.86763040205209

ATOMIC_POSITIONS angstrom
Si   -0.12094852778626 1.30081870987813 1.98225590722583
Si   2.84190417691189 2.25743505283318 0.81561159313207
Si   0.12096101073591 3.17828468675079 4.63750866136750
Si   2.83330303807052 0.77411882178316 3.42721222857483

