&CONTROL
   calculation = 'scf'
   prefix = 'si_0.5_24_4_Btin_hd'
   pseudo_dir = '/home/vr371/Projects/PP/ofpp/EAC/upf/blps/'
   restart_mode = 'from_scratch'
/

&SYSTEM
   ibrav = 0
   nat = 4
   degauss = 0.005
   ecutwfc = 60
   occupations = 'smearing'
   ntyp = 1
/

&ELECTRONS
/

&IONS
/

&CELL
/

&FCP
/

&RISM
/

ATOMIC_SPECIES
Si  28.08 si.lda.upf

K_POINTS automatic
20 20 20 1 1 1

CELL_PARAMETERS angstrom
5.58606223880623 0.00001032459225 -0.00000000000026
-1.23391872976757 5.25543753990842 -0.00000000000507
-0.00000000000043 -0.00000000000987 5.77546866798844

ATOMIC_POSITIONS angstrom
Si   -0.11904881269014 1.28038700239313 1.95112099768825
Si   2.79726693853107 2.22197795776250 0.80280093983680
Si   0.11906109957252 3.12836398486465 4.56466821118896
Si   2.78880089611130 0.76195988740960 3.37338167001083

