&CONTROL
   calculation = 'scf'
   prefix = 'si_0.5_22_4_Btin_hd'
   pseudo_dir = '/home/vr371/Projects/PP/ofpp/EAC/upf/blps/'
   restart_mode = 'from_scratch'
/

&SYSTEM
   ibrav = 0
   nat = 4
   degauss = 0.005
   ecutwfc = 60
   occupations = 'smearing'
   ntyp = 1
/

&ELECTRONS
/

&IONS
/

&CELL
/

&FCP
/

&RISM
/

ATOMIC_SPECIES
Si  28.08 si.lda.upf

K_POINTS automatic
20 20 20 1 1 1

CELL_PARAMETERS angstrom
5.40778365671667 0.00000999508398 -0.00000000000025
-1.19453834477499 5.08771080991135 -0.00000000000491
-0.00000000000041 -0.00000000000955 5.59114519986115

ATOMIC_POSITIONS angstrom
Si   -0.11524938249790 1.23952358742314 1.88885117861309
Si   2.70799246176944 2.15106376762114 0.77717963324627
Si   0.11526127724574 3.02852258109237 4.41898731083186
Si   2.69979661219286 0.73764201866249 3.26572055288283

