&CONTROL
   calculation = 'scf'
   prefix = 'si_0.5_28_4_Btin_hd'
   pseudo_dir = '/home/vr371/Projects/PP/ofpp/EAC/upf/blps/'
   restart_mode = 'from_scratch'
/

&SYSTEM
   ibrav = 0
   nat = 4
   degauss = 0.005
   ecutwfc = 60
   occupations = 'smearing'
   ntyp = 1
/

&ELECTRONS
/

&IONS
/

&CELL
/

&FCP
/

&RISM
/

ATOMIC_SPECIES
Si  28.08 si.lda.upf

K_POINTS automatic
20 20 20 1 1 1

CELL_PARAMETERS angstrom
5.94261940298535 0.00001098360877 -0.00000000000028
-1.31267949975273 5.59089099990258 -0.00000000000539
-0.00000000000046 -0.00000000001050 6.14411560424302

ATOMIC_POSITIONS angstrom
Si   -0.12664767307462 1.36211383233312 2.07566063583857
Si   2.97581589205433 2.36380633804521 0.85404355301788
Si   0.12666074422608 3.32804679240920 4.85603001190315
Si   2.96680946394819 0.81059562490383 3.58870390426684

