&CONTROL
   calculation = 'scf'
   prefix = 'si_0.5_12_4_Btin_hd'
   pseudo_dir = '/home/vr371/Projects/PP/ofpp/EAC/upf/blps/'
   restart_mode = 'from_scratch'
/

&SYSTEM
   ibrav = 0
   nat = 4
   degauss = 0.005
   ecutwfc = 60
   occupations = 'smearing'
   ntyp = 1
/

&ELECTRONS
/

&IONS
/

&CELL
/

&FCP
/

&RISM
/

ATOMIC_SPECIES
Si  28.08 si.lda.upf

K_POINTS automatic
20 20 20 1 1 1

CELL_PARAMETERS angstrom
4.51639074626887 0.00000834754267 -0.00000000000021
-0.99763641981208 4.24907715992596 -0.00000000000410
-0.00000000000035 -0.00000000000798 4.66952785922470

ATOMIC_POSITIONS angstrom
Si   -0.09625223153671 1.03520651257317 1.57750208323731
Si   2.26162007796129 1.79649281691436 0.64907310029359
Si   0.09626216561182 2.52931556223099 3.69058280904639
Si   2.25477519260063 0.61605267492691 2.72741496724280

