&CONTROL
   calculation = 'scf'
   prefix = 'si_0.5_21_4_Btin_hd'
   pseudo_dir = '/home/vr371/Projects/PP/ofpp/EAC/upf/blps/'
   restart_mode = 'from_scratch'
/

&SYSTEM
   ibrav = 0
   nat = 4
   degauss = 0.005
   ecutwfc = 60
   occupations = 'smearing'
   ntyp = 1
/

&ELECTRONS
/

&IONS
/

&CELL
/

&FCP
/

&RISM
/

ATOMIC_SPECIES
Si  28.08 si.lda.upf

K_POINTS automatic
20 20 20 1 1 1

CELL_PARAMETERS angstrom
5.31864436567189 0.00000983032985 -0.00000000000025
-1.17484815227869 5.00384744491281 -0.00000000000483
-0.00000000000041 -0.00000000000939 5.49898346579750

ATOMIC_POSITIONS angstrom
Si   -0.11334966740179 1.21909187993814 1.85771626907552
Si   2.66335522338863 2.11560667255047 0.76436897995100
Si   0.11336136608234 2.97860187920623 4.34614686065331
Si   2.65529447023363 0.72548308428893 3.21188999431882

