&CONTROL
   calculation = 'scf'
   prefix = 'si_0.5_19_4_Btin_hd'
   pseudo_dir = '/home/vr371/Projects/PP/ofpp/EAC/upf/blps/'
   restart_mode = 'from_scratch'
/

&SYSTEM
   ibrav = 0
   nat = 4
   degauss = 0.005
   ecutwfc = 60
   occupations = 'smearing'
   ntyp = 1
/

&ELECTRONS
/

&IONS
/

&CELL
/

&FCP
/

&RISM
/

ATOMIC_SPECIES
Si  28.08 si.lda.upf

K_POINTS automatic
20 20 20 1 1 1

CELL_PARAMETERS angstrom
5.14036578358233 0.00000950082159 -0.00000000000024
-1.13546776728611 4.83612071491573 -0.00000000000467
-0.00000000000039 -0.00000000000908 5.31465999767021

ATOMIC_POSITIONS angstrom
Si   -0.10955023720955 1.17822846496815 1.79544645000036
Si   2.57408074662700 2.04469248240911 0.73874767336046
Si   0.10956154375556 2.87876047543396 4.20046596029622
Si   2.56629018631519 0.70116521554182 3.10422887719082

