&CONTROL
   calculation = 'scf'
   prefix = 'si_0.5_18_4_Btin_hd'
   pseudo_dir = '/home/vr371/Projects/PP/ofpp/EAC/upf/blps/'
   restart_mode = 'from_scratch'
/

&SYSTEM
   ibrav = 0
   nat = 4
   degauss = 0.005
   ecutwfc = 60
   occupations = 'smearing'
   ntyp = 1
/

&ELECTRONS
/

&IONS
/

&CELL
/

&FCP
/

&RISM
/

ATOMIC_SPECIES
Si  28.08 si.lda.upf

K_POINTS automatic
20 20 20 1 1 1

CELL_PARAMETERS angstrom
5.05122649253755 0.00000933606746 -0.00000000000023
-1.11577757478982 4.75225734991719 -0.00000000000458
-0.00000000000039 -0.00000000000892 5.22249826360657

ATOMIC_POSITIONS angstrom
Si   -0.10765052211343 1.15779675748315 1.76431154046278
Si   2.52944350824618 2.00923538733843 0.72593702006519
Si   0.10766163259217 2.82883977354782 4.12762551011767
Si   2.52178804435596 0.68900628116826 3.05039831862682

