&CONTROL
   calculation = 'scf'
   prefix = 'si'
   pseudo_dir = '/home/valeria/Desktop/programs/dftpy/examples/ofpp/EAC/upf/blps/'
   restart_mode = 'from_scratch'
/

&SYSTEM
   ibrav = 0
   nat = 4
   degauss = 0.005
   ecutwfc = 60
   occupations = 'smearing'
   ntyp = 1
/

&ELECTRONS
/

&IONS
/

&CELL
/

&FCP
/

&RISM
/

ATOMIC_SPECIES
Si  28.08 si.lda.upf

K_POINTS automatic
20 20 20 1 1 1

CELL_PARAMETERS angstrom
3.94751724137931 0.00000000000000 0.00000000000000
0.00000000000000 3.94751724137931 0.00000000000000
0.00000000000000 0.00000000000000 2.17482758620690

ATOMIC_POSITIONS angstrom
Si   0.00000000000000 0.00000000000000 0.00000000000000
Si   1.97375862068965 1.97375862068965 1.08741379310345
Si   0.00000000000000 1.97375862068965 0.54370689655172
Si   1.97375862068965 0.00000000000000 1.63112068965517

