&CONTROL
   calculation = 'scf'
   prefix = 'si'
   pseudo_dir = '/home/valeria/Desktop/programs/dftpy/examples/ofpp/EAC/upf/blps/'
   restart_mode = 'from_scratch'
/

&SYSTEM
   ibrav = 0
   nat = 4
   degauss = 0.005
   ecutwfc = 60
   occupations = 'smearing'
   ntyp = 1
/

&ELECTRONS
/

&IONS
/

&CELL
/

&FCP
/

&RISM
/

ATOMIC_SPECIES
Si  28.08 si.lda.upf

K_POINTS automatic
20 20 20 1 1 1

CELL_PARAMETERS angstrom
4.94268965517241 0.00000000000000 0.00000000000000
0.00000000000000 4.94268965517241 0.00000000000000
0.00000000000000 0.00000000000000 2.72310344827586

ATOMIC_POSITIONS angstrom
Si   0.00000000000000 0.00000000000000 0.00000000000000
Si   2.47134482758621 2.47134482758621 1.36155172413793
Si   0.00000000000000 2.47134482758621 0.68077586206897
Si   2.47134482758621 0.00000000000000 2.04232758620690

