&CONTROL
   calculation = 'scf'
   prefix = 'si'
   pseudo_dir = '/home/valeria/Desktop/programs/dftpy/examples/ofpp/EAC/upf/blps/'
   restart_mode = 'from_scratch'
/

&SYSTEM
   ibrav = 0
   nat = 4
   degauss = 0.005
   ecutwfc = 60
   occupations = 'smearing'
   ntyp = 1
/

&ELECTRONS
/

&IONS
/

&CELL
/

&FCP
/

&RISM
/

ATOMIC_SPECIES
Si  28.08 si.lda.upf

K_POINTS automatic
20 20 20 1 1 1

CELL_PARAMETERS angstrom
5.04220689655172 0.00000000000000 0.00000000000000
0.00000000000000 5.04220689655172 0.00000000000000
0.00000000000000 0.00000000000000 2.77793103448276

ATOMIC_POSITIONS angstrom
Si   0.00000000000000 0.00000000000000 0.00000000000000
Si   2.52110344827586 2.52110344827586 1.38896551724138
Si   0.00000000000000 2.52110344827586 0.69448275862069
Si   2.52110344827586 0.00000000000000 2.08344827586207

