&CONTROL
   calculation = 'scf'
   prefix = 'si'
   pseudo_dir = '/home/valeria/Desktop/programs/dftpy/examples/ofpp/EAC/upf/blps/'
   restart_mode = 'from_scratch'
/

&SYSTEM
   ibrav = 0
   nat = 4
   degauss = 0.005
   ecutwfc = 60
   occupations = 'smearing'
   ntyp = 1
/

&ELECTRONS
/

&IONS
/

&CELL
/

&FCP
/

&RISM
/

ATOMIC_SPECIES
Si  28.08 si.lda.upf

K_POINTS automatic
20 20 20 1 1 1

CELL_PARAMETERS angstrom
5.14172413793103 0.00000000000000 0.00000000000000
0.00000000000000 5.14172413793103 0.00000000000000
0.00000000000000 0.00000000000000 2.83275862068965

ATOMIC_POSITIONS angstrom
Si   0.00000000000000 0.00000000000000 0.00000000000000
Si   2.57086206896552 2.57086206896552 1.41637931034483
Si   0.00000000000000 2.57086206896552 0.70818965517241
Si   2.57086206896552 0.00000000000000 2.12456896551724

