&CONTROL
   calculation = 'scf'
   prefix = 'si'
   pseudo_dir = '/home/valeria/Desktop/programs/dftpy/examples/ofpp/EAC/upf/blps/'
   restart_mode = 'from_scratch'
/

&SYSTEM
   ibrav = 0
   nat = 4
   degauss = 0.005
   ecutwfc = 60
   occupations = 'smearing'
   ntyp = 1
/

&ELECTRONS
/

&IONS
/

&CELL
/

&FCP
/

&RISM
/

ATOMIC_SPECIES
Si  28.08 si.lda.upf

K_POINTS automatic
20 20 20 1 1 1

CELL_PARAMETERS angstrom
5.24124137931034 0.00000000000000 0.00000000000000
0.00000000000000 5.24124137931034 0.00000000000000
0.00000000000000 0.00000000000000 2.88758620689655

ATOMIC_POSITIONS angstrom
Si   0.00000000000000 0.00000000000000 0.00000000000000
Si   2.62062068965517 2.62062068965517 1.44379310344828
Si   0.00000000000000 2.62062068965517 0.72189655172414
Si   2.62062068965517 0.00000000000000 2.16568965517241

