&CONTROL
   calculation = 'scf'
   prefix = 'si'
   pseudo_dir = '/home/valeria/Desktop/programs/dftpy/examples/ofpp/EAC/upf/blps/'
   restart_mode = 'from_scratch'
/

&SYSTEM
   ibrav = 0
   nat = 4
   degauss = 0.005
   ecutwfc = 60
   occupations = 'smearing'
   ntyp = 1
/

&ELECTRONS
/

&IONS
/

&CELL
/

&FCP
/

&RISM
/

ATOMIC_SPECIES
Si  28.08 si.lda.upf

K_POINTS automatic
20 20 20 1 1 1

CELL_PARAMETERS angstrom
5.44027586206897 0.00000000000000 0.00000000000000
0.00000000000000 5.44027586206897 0.00000000000000
0.00000000000000 0.00000000000000 2.99724137931034

ATOMIC_POSITIONS angstrom
Si   0.00000000000000 0.00000000000000 0.00000000000000
Si   2.72013793103448 2.72013793103448 1.49862068965517
Si   0.00000000000000 2.72013793103448 0.74931034482759
Si   2.72013793103448 0.00000000000000 2.24793103448276

