&CONTROL
   calculation = 'scf'
   prefix = 'si'
   pseudo_dir = '/home/valeria/Desktop/programs/dftpy/examples/ofpp/EAC/upf/blps/'
   restart_mode = 'from_scratch'
/

&SYSTEM
   ibrav = 0
   nat = 4
   degauss = 0.005
   ecutwfc = 60
   occupations = 'smearing'
   ntyp = 1
/

&ELECTRONS
/

&IONS
/

&CELL
/

&FCP
/

&RISM
/

ATOMIC_SPECIES
Si  28.08 si.lda.upf

K_POINTS automatic
20 20 20 1 1 1

CELL_PARAMETERS angstrom
5.53979310344827 0.00000000000000 0.00000000000000
0.00000000000000 5.53979310344827 0.00000000000000
0.00000000000000 0.00000000000000 3.05206896551724

ATOMIC_POSITIONS angstrom
Si   0.00000000000000 0.00000000000000 0.00000000000000
Si   2.76989655172414 2.76989655172414 1.52603448275862
Si   0.00000000000000 2.76989655172414 0.76301724137931
Si   2.76989655172414 0.00000000000000 2.28905172413793

