&CONTROL
   calculation = 'scf'
   prefix = 'si'
   pseudo_dir = '/home/valeria/Desktop/programs/dftpy/examples/ofpp/EAC/upf/blps/'
   restart_mode = 'from_scratch'
/

&SYSTEM
   ibrav = 0
   nat = 4
   degauss = 0.005
   ecutwfc = 60
   occupations = 'smearing'
   ntyp = 1
/

&ELECTRONS
/

&IONS
/

&CELL
/

&FCP
/

&RISM
/

ATOMIC_SPECIES
Si  28.08 si.lda.upf

K_POINTS automatic
20 20 20 1 1 1

CELL_PARAMETERS angstrom
5.63931034482759 0.00000000000000 0.00000000000000
0.00000000000000 5.63931034482759 0.00000000000000
0.00000000000000 0.00000000000000 3.10689655172414

ATOMIC_POSITIONS angstrom
Si   0.00000000000000 0.00000000000000 0.00000000000000
Si   2.81965517241379 2.81965517241379 1.55344827586207
Si   0.00000000000000 2.81965517241379 0.77672413793103
Si   2.81965517241379 0.00000000000000 2.33017241379310

