&CONTROL
   calculation = 'scf'
   prefix = 'si'
   pseudo_dir = '/home/valeria/Desktop/programs/dftpy/examples/ofpp/EAC/upf/blps/'
   restart_mode = 'from_scratch'
/

&SYSTEM
   ibrav = 0
   nat = 4
   degauss = 0.005
   ecutwfc = 60
   occupations = 'smearing'
   ntyp = 1
/

&ELECTRONS
/

&IONS
/

&CELL
/

&FCP
/

&RISM
/

ATOMIC_SPECIES
Si  28.08 si.lda.upf

K_POINTS automatic
20 20 20 1 1 1

CELL_PARAMETERS angstrom
5.83834482758621 0.00000000000000 0.00000000000000
0.00000000000000 5.83834482758621 0.00000000000000
0.00000000000000 0.00000000000000 3.21655172413793

ATOMIC_POSITIONS angstrom
Si   0.00000000000000 0.00000000000000 0.00000000000000
Si   2.91917241379310 2.91917241379310 1.60827586206897
Si   0.00000000000000 2.91917241379310 0.80413793103448
Si   2.91917241379310 0.00000000000000 2.41241379310345

