&CONTROL
   calculation = 'scf'
   prefix = 'si'
   pseudo_dir = '/home/valeria/Desktop/programs/dftpy/examples/ofpp/EAC/upf/blps/'
   restart_mode = 'from_scratch'
/

&SYSTEM
   ibrav = 0
   nat = 4
   degauss = 0.005
   ecutwfc = 60
   occupations = 'smearing'
   ntyp = 1
/

&ELECTRONS
/

&IONS
/

&CELL
/

&FCP
/

&RISM
/

ATOMIC_SPECIES
Si  28.08 si.lda.upf

K_POINTS automatic
20 20 20 1 1 1

CELL_PARAMETERS angstrom
5.93786206896552 0.00000000000000 0.00000000000000
0.00000000000000 5.93786206896552 0.00000000000000
0.00000000000000 0.00000000000000 3.27137931034483

ATOMIC_POSITIONS angstrom
Si   0.00000000000000 0.00000000000000 0.00000000000000
Si   2.96893103448276 2.96893103448276 1.63568965517241
Si   0.00000000000000 2.96893103448276 0.81784482758621
Si   2.96893103448276 0.00000000000000 2.45353448275862

