&CONTROL
   calculation = 'scf'
   prefix = 'si'
   pseudo_dir = '/home/valeria/Desktop/programs/dftpy/examples/ofpp/EAC/upf/blps/'
   restart_mode = 'from_scratch'
/

&SYSTEM
   ibrav = 0
   nat = 4
   degauss = 0.005
   ecutwfc = 60
   occupations = 'smearing'
   ntyp = 1
/

&ELECTRONS
/

&IONS
/

&CELL
/

&FCP
/

&RISM
/

ATOMIC_SPECIES
Si  28.08 si.lda.upf

K_POINTS automatic
20 20 20 1 1 1

CELL_PARAMETERS angstrom
6.03737931034483 0.00000000000000 0.00000000000000
0.00000000000000 6.03737931034483 0.00000000000000
0.00000000000000 0.00000000000000 3.32620689655172

ATOMIC_POSITIONS angstrom
Si   0.00000000000000 0.00000000000000 0.00000000000000
Si   3.01868965517241 3.01868965517241 1.66310344827586
Si   0.00000000000000 3.01868965517241 0.83155172413793
Si   3.01868965517241 0.00000000000000 2.49465517241379

