&CONTROL
   calculation = 'scf'
   prefix = 'si'
   pseudo_dir = '/home/valeria/Desktop/programs/dftpy/examples/ofpp/EAC/upf/blps/'
   restart_mode = 'from_scratch'
/

&SYSTEM
   ibrav = 0
   nat = 4
   degauss = 0.005
   ecutwfc = 60
   occupations = 'smearing'
   ntyp = 1
/

&ELECTRONS
/

&IONS
/

&CELL
/

&FCP
/

&RISM
/

ATOMIC_SPECIES
Si  28.08 si.lda.upf

K_POINTS automatic
20 20 20 1 1 1

CELL_PARAMETERS angstrom
6.33593103448276 0.00000000000000 0.00000000000000
0.00000000000000 6.33593103448276 0.00000000000000
0.00000000000000 0.00000000000000 3.49068965517241

ATOMIC_POSITIONS angstrom
Si   0.00000000000000 0.00000000000000 0.00000000000000
Si   3.16796551724138 3.16796551724138 1.74534482758621
Si   0.00000000000000 3.16796551724138 0.87267241379310
Si   3.16796551724138 0.00000000000000 2.61801724137931

