&CONTROL
   calculation = 'scf'
   prefix = 'si'
   pseudo_dir = '/home/valeria/Desktop/programs/dftpy/examples/ofpp/EAC/upf/blps/'
   restart_mode = 'from_scratch'
/

&SYSTEM
   ibrav = 0
   nat = 4
   degauss = 0.005
   ecutwfc = 60
   occupations = 'smearing'
   ntyp = 1
/

&ELECTRONS
/

&IONS
/

&CELL
/

&FCP
/

&RISM
/

ATOMIC_SPECIES
Si  28.08 si.lda.upf

K_POINTS automatic
20 20 20 1 1 1

CELL_PARAMETERS angstrom
6.43544827586207 0.00000000000000 0.00000000000000
0.00000000000000 6.43544827586207 0.00000000000000
0.00000000000000 0.00000000000000 3.54551724137931

ATOMIC_POSITIONS angstrom
Si   0.00000000000000 0.00000000000000 0.00000000000000
Si   3.21772413793103 3.21772413793103 1.77275862068966
Si   0.00000000000000 3.21772413793103 0.88637931034483
Si   3.21772413793103 0.00000000000000 2.65913793103448

