&CONTROL
   calculation = 'scf'
   prefix = 'si'
   pseudo_dir = '/home/valeria/Desktop/programs/dftpy/examples/ofpp/EAC/upf/blps/'
   restart_mode = 'from_scratch'
/

&SYSTEM
   ibrav = 0
   nat = 4
   degauss = 0.005
   ecutwfc = 60
   occupations = 'smearing'
   ntyp = 1
/

&ELECTRONS
/

&IONS
/

&CELL
/

&FCP
/

&RISM
/

ATOMIC_SPECIES
Si  28.08 si.lda.upf

K_POINTS automatic
20 20 20 1 1 1

CELL_PARAMETERS angstrom
6.63448275862069 0.00000000000000 0.00000000000000
0.00000000000000 6.63448275862069 0.00000000000000
0.00000000000000 0.00000000000000 3.65517241379310

ATOMIC_POSITIONS angstrom
Si   0.00000000000000 0.00000000000000 0.00000000000000
Si   3.31724137931034 3.31724137931034 1.82758620689655
Si   0.00000000000000 3.31724137931034 0.91379310344828
Si   3.31724137931034 0.00000000000000 2.74137931034483

