&CONTROL
   calculation = 'scf'
   prefix = 'si'
   pseudo_dir = '/home/valeria/Desktop/programs/dftpy/examples/ofpp/EAC/upf/blps/'
   restart_mode = 'from_scratch'
/

&SYSTEM
   ibrav = 0
   nat = 4
   degauss = 0.005
   ecutwfc = 60
   occupations = 'smearing'
   ntyp = 1
/

&ELECTRONS
/

&IONS
/

&CELL
/

&FCP
/

&RISM
/

ATOMIC_SPECIES
Si  28.08 si.lda.upf

K_POINTS automatic
20 20 20 1 1 1

CELL_PARAMETERS angstrom
4.14655172413793 0.00000000000000 0.00000000000000
0.00000000000000 4.14655172413793 0.00000000000000
0.00000000000000 0.00000000000000 2.28448275862069

ATOMIC_POSITIONS angstrom
Si   0.00000000000000 0.00000000000000 0.00000000000000
Si   2.07327586206897 2.07327586206897 1.14224137931034
Si   0.00000000000000 2.07327586206897 0.57112068965517
Si   2.07327586206897 0.00000000000000 1.71336206896552

