&CONTROL
   calculation = 'scf'
   prefix = 'si'
   pseudo_dir = '/home/valeria/Desktop/programs/dftpy/examples/ofpp/EAC/upf/blps/'
   restart_mode = 'from_scratch'
/

&SYSTEM
   ibrav = 0
   nat = 4
   degauss = 0.005
   ecutwfc = 60
   occupations = 'smearing'
   ntyp = 1
/

&ELECTRONS
/

&IONS
/

&CELL
/

&FCP
/

&RISM
/

ATOMIC_SPECIES
Si  28.08 si.lda.upf

K_POINTS automatic
20 20 20 1 1 1

CELL_PARAMETERS angstrom
4.34558620689655 0.00000000000000 0.00000000000000
0.00000000000000 4.34558620689655 0.00000000000000
0.00000000000000 0.00000000000000 2.39413793103448

ATOMIC_POSITIONS angstrom
Si   0.00000000000000 0.00000000000000 0.00000000000000
Si   2.17279310344828 2.17279310344828 1.19706896551724
Si   0.00000000000000 2.17279310344828 0.59853448275862
Si   2.17279310344828 0.00000000000000 1.79560344827586

