&CONTROL
   calculation = 'scf'
   prefix = 'si'
   pseudo_dir = '/home/valeria/Desktop/programs/dftpy/examples/ofpp/EAC/upf/blps/'
   restart_mode = 'from_scratch'
/

&SYSTEM
   ibrav = 0
   nat = 4
   degauss = 0.005
   ecutwfc = 60
   occupations = 'smearing'
   ntyp = 1
/

&ELECTRONS
/

&IONS
/

&CELL
/

&FCP
/

&RISM
/

ATOMIC_SPECIES
Si  28.08 si.lda.upf

K_POINTS automatic
20 20 20 1 1 1

CELL_PARAMETERS angstrom
4.44510344827586 0.00000000000000 0.00000000000000
0.00000000000000 4.44510344827586 0.00000000000000
0.00000000000000 0.00000000000000 2.44896551724138

ATOMIC_POSITIONS angstrom
Si   0.00000000000000 0.00000000000000 0.00000000000000
Si   2.22255172413793 2.22255172413793 1.22448275862069
Si   0.00000000000000 2.22255172413793 0.61224137931034
Si   2.22255172413793 0.00000000000000 1.83672413793103

