&CONTROL
   calculation = 'scf'
   prefix = 'si'
   pseudo_dir = '/home/valeria/Desktop/programs/dftpy/examples/ofpp/EAC/upf/blps/'
   restart_mode = 'from_scratch'
/

&SYSTEM
   ibrav = 0
   nat = 4
   degauss = 0.005
   ecutwfc = 60
   occupations = 'smearing'
   ntyp = 1
/

&ELECTRONS
/

&IONS
/

&CELL
/

&FCP
/

&RISM
/

ATOMIC_SPECIES
Si  28.08 si.lda.upf

K_POINTS automatic
20 20 20 1 1 1

CELL_PARAMETERS angstrom
4.64413793103448 0.00000000000000 0.00000000000000
0.00000000000000 4.64413793103448 0.00000000000000
0.00000000000000 0.00000000000000 2.55862068965517

ATOMIC_POSITIONS angstrom
Si   0.00000000000000 0.00000000000000 0.00000000000000
Si   2.32206896551724 2.32206896551724 1.27931034482759
Si   0.00000000000000 2.32206896551724 0.63965517241379
Si   2.32206896551724 0.00000000000000 1.91896551724138

