&CONTROL
   calculation = 'scf'
   prefix = 'si'
   pseudo_dir = '/home/valeria/Desktop/programs/dftpy/examples/ofpp/EAC/upf/blps/'
   restart_mode = 'from_scratch'
/

&SYSTEM
   ibrav = 0
   nat = 4
   degauss = 0.005
   ecutwfc = 60
   occupations = 'smearing'
   ntyp = 1
/

&ELECTRONS
/

&IONS
/

&CELL
/

&FCP
/

&RISM
/

ATOMIC_SPECIES
Si  28.08 si.lda.upf

K_POINTS automatic
20 20 20 1 1 1

CELL_PARAMETERS angstrom
4.74365517241379 0.00000000000000 0.00000000000000
0.00000000000000 4.74365517241379 0.00000000000000
0.00000000000000 0.00000000000000 2.61344827586207

ATOMIC_POSITIONS angstrom
Si   0.00000000000000 0.00000000000000 0.00000000000000
Si   2.37182758620690 2.37182758620690 1.30672413793103
Si   0.00000000000000 2.37182758620690 0.65336206896552
Si   2.37182758620690 0.00000000000000 1.96008620689655

