&CONTROL
   calculation = 'scf'
   prefix = 'si'
   pseudo_dir = '/home/valeria/Desktop/programs/dftpy/examples/ofpp/EAC/upf/blps/'
   restart_mode = 'from_scratch'
/

&SYSTEM
   ibrav = 0
   nat = 4
   degauss = 0.005
   ecutwfc = 60
   occupations = 'smearing'
   ntyp = 1
/

&ELECTRONS
/

&IONS
/

&CELL
/

&FCP
/

&RISM
/

ATOMIC_SPECIES
Si  28.08 si.lda.upf

K_POINTS automatic
20 20 20 1 1 1

CELL_PARAMETERS angstrom
4.93571068450900 0.00002064918448 -0.00000000000052
-2.46783745953513 4.27446128671341 -0.00000000001013
-0.00000000000085 -0.00000000001972 8.11507526701135

ATOMIC_POSITIONS angstrom
Si   0.00001228688145 2.84964753898251 4.56370595997461
Si   2.46786093808664 1.42483439688042 0.50616826654533
Si   0.00001228688330 2.84964753898133 7.60890694053844
Si   2.46786093809465 1.42483439691207 3.55136936694303

