&CONTROL
   calculation = 'scf'
   prefix = 'si'
   pseudo_dir = '/home/valeria/Desktop/programs/dftpy/examples/ofpp/EAC/upf/blps/'
   restart_mode = 'from_scratch'
/

&SYSTEM
   ibrav = 0
   nat = 4
   degauss = 0.005
   ecutwfc = 60
   occupations = 'smearing'
   ntyp = 1
/

&ELECTRONS
/

&IONS
/

&CELL
/

&FCP
/

&RISM
/

ATOMIC_SPECIES
Si  28.08 si.lda.upf

K_POINTS automatic
20 20 20 1 1 1

CELL_PARAMETERS angstrom
3.99057459598600 0.00001669508533 -0.00000000000042
-1.99527283962415 3.45594742330020 -0.00000000000819
-0.00000000000069 -0.00000000001595 6.56112468396663

ATOMIC_POSITIONS angstrom
Si   0.00000993407436 2.30397035066671 3.68980481870288
Si   1.99529182228282 1.15199376769055 0.40924242827069
Si   0.00000993407586 2.30397035066576 6.15188220724384
Si   1.99529182228929 1.15199376771614 2.87131991369862

