&CONTROL
   calculation = 'scf'
   prefix = 'si'
   pseudo_dir = '/home/valeria/Desktop/programs/dftpy/examples/ofpp/EAC/upf/blps/'
   restart_mode = 'from_scratch'
/

&SYSTEM
   ibrav = 0
   nat = 4
   degauss = 0.005
   ecutwfc = 60
   occupations = 'smearing'
   ntyp = 1
/

&ELECTRONS
/

&IONS
/

&CELL
/

&FCP
/

&RISM
/

ATOMIC_SPECIES
Si  28.08 si.lda.upf

K_POINTS automatic
20 20 20 1 1 1

CELL_PARAMETERS angstrom
3.43924521101425 0.00001438852749 -0.00000000000036
-1.71961014467608 2.97848100297583 -0.00000000000706
-0.00000000000059 -0.00000000001374 5.65465351052387

ATOMIC_POSITIONS angstrom
Si   0.00000856160356 1.98565865748249 3.18002915296103
Si   1.71962650473058 0.99283673399646 0.35270235594382
Si   0.00000856160485 1.98565865748167 5.30195111282200
Si   1.71962650473617 0.99283673401852 2.47462439930605

