&CONTROL
   calculation = 'scf'
   prefix = 'si'
   pseudo_dir = '/home/valeria/Desktop/programs/dftpy/examples/ofpp/EAC/upf/blps/'
   restart_mode = 'from_scratch'
/

&SYSTEM
   ibrav = 0
   nat = 4
   degauss = 0.005
   ecutwfc = 60
   occupations = 'smearing'
   ntyp = 1
/

&ELECTRONS
/

&IONS
/

&CELL
/

&FCP
/

&RISM
/

ATOMIC_SPECIES
Si  28.08 si.lda.upf

K_POINTS automatic
20 20 20 1 1 1

CELL_PARAMETERS angstrom
2.93928264871998 -0.00000000016149 0.00000000030609
-0.00000000016149 2.93928264854919 0.00000000014749
0.00000000055935 0.00000000026956 5.38482277760943

ATOMIC_POSITIONS angstrom
Si   1.46964132430399 1.46964132508338 1.65472507430481
Si   0.00000000054498 -0.00000000050437 1.03768631268979
Si   0.00000000008359 0.00000000038092 4.34713646186532
Si   1.46964132474462 1.46964132396689 3.73009770681251

