&CONTROL
   calculation = 'scf'
   prefix = 'si'
   pseudo_dir = '/home/valeria/Desktop/programs/dftpy/examples/ofpp/EAC/upf/blps/'
   restart_mode = 'from_scratch'
/

&SYSTEM
   ibrav = 0
   nat = 4
   degauss = 0.005
   ecutwfc = 60
   occupations = 'smearing'
   ntyp = 1
/

&ELECTRONS
/

&IONS
/

&CELL
/

&FCP
/

&RISM
/

ATOMIC_SPECIES
Si  28.08 si.lda.upf

K_POINTS automatic
20 20 20 1 1 1

CELL_PARAMETERS angstrom
3.69706645659310 -0.00000000020312 0.00000000038501
-0.00000000020312 3.69706645637828 0.00000000018551
0.00000000070355 0.00000000033906 6.77309739996186

ATOMIC_POSITIONS angstrom
Si   1.84853322822612 1.84853322920644 2.08133388252402
Si   0.00000000068548 -0.00000000063441 1.30521481518013
Si   0.00000000010514 0.00000000047913 5.46788258093998
Si   1.84853322878035 1.84853322780211 4.69176352185012

