&CONTROL
   calculation = 'scf'
   prefix = 'si'
   pseudo_dir = '/home/valeria/Desktop/programs/dftpy/examples/ofpp/EAC/upf/blps/'
   restart_mode = 'from_scratch'
/

&SYSTEM
   ibrav = 0
   nat = 4
   degauss = 0.005
   ecutwfc = 60
   occupations = 'smearing'
   ntyp = 1
/

&ELECTRONS
/

&IONS
/

&CELL
/

&FCP
/

&RISM
/

ATOMIC_SPECIES
Si  28.08 si.lda.upf

K_POINTS automatic
20 20 20 1 1 1

CELL_PARAMETERS angstrom
4.66151857570435 -0.00000000025611 0.00000000048544
-0.00000000025611 4.66151857543348 0.00000000023391
0.00000000088709 0.00000000042751 8.53999237386495

ATOMIC_POSITIONS angstrom
Si   2.33075928776336 2.33075928899943 2.62429054753028
Si   0.00000000086431 -0.00000000079990 1.64570563653146
Si   0.00000000013256 0.00000000060412 6.89428673248954
Si   2.33075928846218 2.33075928722875 5.91570183189797

