&CONTROL
   calculation = 'scf'
   prefix = 'si'
   pseudo_dir = '/home/valeria/Desktop/programs/dftpy/examples/ofpp/EAC/upf/blps/'
   restart_mode = 'from_scratch'
/

&SYSTEM
   ibrav = 0
   nat = 4
   degauss = 0.005
   ecutwfc = 60
   occupations = 'smearing'
   ntyp = 1
/

&ELECTRONS
/

&IONS
/

&CELL
/

&FCP
/

&RISM
/

ATOMIC_SPECIES
Si  28.08 si.lda.upf

K_POINTS automatic
20 20 20 1 1 1

CELL_PARAMETERS angstrom
3.62817701951373 -0.00000000019934 0.00000000037783
-0.00000000019934 3.62817701930291 0.00000000018206
0.00000000069044 0.00000000033274 6.64689061611164

ATOMIC_POSITIONS angstrom
Si   1.81408850968774 1.81408851064980 2.04255126359500
Si   0.00000000067271 -0.00000000062258 1.28089404222646
Si   0.00000000010318 0.00000000047020 5.36599657011501
Si   1.81408851023165 1.81408850927163 4.60433935684670

