&CONTROL
   calculation = 'scf'
   prefix = 'si'
   pseudo_dir = '/home/valeria/Desktop/programs/dftpy/examples/ofpp/EAC/upf/blps/'
   restart_mode = 'from_scratch'
/

&SYSTEM
   ibrav = 0
   nat = 8
   degauss = 0.005
   ecutwfc = 60
   occupations = 'smearing'
   ntyp = 1
/

&ELECTRONS
/

&IONS
/

&CELL
/

&FCP
/

&RISM
/

ATOMIC_SPECIES
Si  28.08 si.lda.upf

K_POINTS automatic
20 20 20 1 1 1

CELL_PARAMETERS angstrom
5.46744827586207 0.00000000000000 0.00000000000000
0.00000000000000 5.46744827586207 0.00000000000000
0.00000000000000 0.00000000000000 5.46744827586207

ATOMIC_POSITIONS angstrom
Si   0.00000000000000 0.00000000000000 0.00000000000000
Si   1.36686206896552 1.36686206896552 1.36686206896552
Si   0.00000000000000 2.73372413793103 2.73372413793103
Si   1.36686206896552 4.10058620689655 4.10058620689655
Si   2.73372413793103 0.00000000000000 2.73372413793103
Si   4.10058620689655 1.36686206896552 4.10058620689655
Si   2.73372413793103 2.73372413793103 0.00000000000000
Si   4.10058620689655 4.10058620689655 1.36686206896552

