&CONTROL
   calculation = 'scf'
   prefix = 'si'
   pseudo_dir = '/home/valeria/Desktop/programs/dftpy/examples/ofpp/EAC/upf/blps/'
   restart_mode = 'from_scratch'
/

&SYSTEM
   ibrav = 0
   nat = 8
   degauss = 0.005
   ecutwfc = 60
   occupations = 'smearing'
   ntyp = 1
/

&ELECTRONS
/

&IONS
/

&CELL
/

&FCP
/

&RISM
/

ATOMIC_SPECIES
Si  28.08 si.lda.upf

K_POINTS automatic
20 20 20 1 1 1

CELL_PARAMETERS angstrom
6.36620689655172 0.00000000000000 0.00000000000000
0.00000000000000 6.36620689655172 0.00000000000000
0.00000000000000 0.00000000000000 6.36620689655172

ATOMIC_POSITIONS angstrom
Si   0.00000000000000 0.00000000000000 0.00000000000000
Si   1.59155172413793 1.59155172413793 1.59155172413793
Si   0.00000000000000 3.18310344827586 3.18310344827586
Si   1.59155172413793 4.77465517241379 4.77465517241379
Si   3.18310344827586 0.00000000000000 3.18310344827586
Si   4.77465517241379 1.59155172413793 4.77465517241379
Si   3.18310344827586 3.18310344827586 0.00000000000000
Si   4.77465517241379 4.77465517241379 1.59155172413793

