&CONTROL
   calculation = 'scf'
   prefix = 'si'
   pseudo_dir = '/home/valeria/Desktop/programs/dftpy/examples/ofpp/EAC/upf/blps/'
   restart_mode = 'from_scratch'
/

&SYSTEM
   ibrav = 0
   nat = 8
   degauss = 0.005
   ecutwfc = 60
   occupations = 'smearing'
   ntyp = 1
/

&ELECTRONS
/

&IONS
/

&CELL
/

&FCP
/

&RISM
/

ATOMIC_SPECIES
Si  28.08 si.lda.upf

K_POINTS automatic
20 20 20 1 1 1

CELL_PARAMETERS angstrom
5.57979310344828 0.00000000000000 0.00000000000000
0.00000000000000 5.57979310344828 0.00000000000000
0.00000000000000 0.00000000000000 5.57979310344828

ATOMIC_POSITIONS angstrom
Si   0.00000000000000 0.00000000000000 0.00000000000000
Si   1.39494827586207 1.39494827586207 1.39494827586207
Si   0.00000000000000 2.78989655172414 2.78989655172414
Si   1.39494827586207 4.18484482758621 4.18484482758621
Si   2.78989655172414 0.00000000000000 2.78989655172414
Si   4.18484482758621 1.39494827586207 4.18484482758621
Si   2.78989655172414 2.78989655172414 0.00000000000000
Si   4.18484482758621 4.18484482758621 1.39494827586207

