&CONTROL
   calculation = 'scf'
   prefix = 'si'
   pseudo_dir = '/home/valeria/Desktop/programs/dftpy/examples/ofpp/EAC/upf/blps/'
   restart_mode = 'from_scratch'
/

&SYSTEM
   ibrav = 0
   nat = 8
   degauss = 0.005
   ecutwfc = 60
   occupations = 'smearing'
   ntyp = 1
/

&ELECTRONS
/

&IONS
/

&CELL
/

&FCP
/

&RISM
/

ATOMIC_SPECIES
Si  28.08 si.lda.upf

K_POINTS automatic
20 20 20 1 1 1

CELL_PARAMETERS angstrom
5.69213793103448 0.00000000000000 0.00000000000000
0.00000000000000 5.69213793103448 0.00000000000000
0.00000000000000 0.00000000000000 5.69213793103448

ATOMIC_POSITIONS angstrom
Si   0.00000000000000 0.00000000000000 0.00000000000000
Si   1.42303448275862 1.42303448275862 1.42303448275862
Si   0.00000000000000 2.84606896551724 2.84606896551724
Si   1.42303448275862 4.26910344827586 4.26910344827586
Si   2.84606896551724 0.00000000000000 2.84606896551724
Si   4.26910344827586 1.42303448275862 4.26910344827586
Si   2.84606896551724 2.84606896551724 0.00000000000000
Si   4.26910344827586 4.26910344827586 1.42303448275862

