&CONTROL
   calculation = 'scf'
   prefix = 'si'
   pseudo_dir = '/home/valeria/Desktop/programs/dftpy/examples/ofpp/EAC/upf/blps/'
   restart_mode = 'from_scratch'
/

&SYSTEM
   ibrav = 0
   nat = 8
   degauss = 0.005
   ecutwfc = 60
   occupations = 'smearing'
   ntyp = 1
/

&ELECTRONS
/

&IONS
/

&CELL
/

&FCP
/

&RISM
/

ATOMIC_SPECIES
Si  28.08 si.lda.upf

K_POINTS automatic
20 20 20 1 1 1

CELL_PARAMETERS angstrom
5.80448275862069 0.00000000000000 0.00000000000000
0.00000000000000 5.80448275862069 0.00000000000000
0.00000000000000 0.00000000000000 5.80448275862069

ATOMIC_POSITIONS angstrom
Si   0.00000000000000 0.00000000000000 0.00000000000000
Si   1.45112068965517 1.45112068965517 1.45112068965517
Si   0.00000000000000 2.90224137931034 2.90224137931034
Si   1.45112068965517 4.35336206896552 4.35336206896552
Si   2.90224137931034 0.00000000000000 2.90224137931034
Si   4.35336206896552 1.45112068965517 4.35336206896552
Si   2.90224137931034 2.90224137931034 0.00000000000000
Si   4.35336206896552 4.35336206896552 1.45112068965517

