&CONTROL
   calculation = 'scf'
   prefix = 'si'
   pseudo_dir = '/home/valeria/Desktop/programs/dftpy/examples/ofpp/EAC/upf/blps/'
   restart_mode = 'from_scratch'
/

&SYSTEM
   ibrav = 0
   nat = 8
   degauss = 0.005
   ecutwfc = 60
   occupations = 'smearing'
   ntyp = 1
/

&ELECTRONS
/

&IONS
/

&CELL
/

&FCP
/

&RISM
/

ATOMIC_SPECIES
Si  28.08 si.lda.upf

K_POINTS automatic
20 20 20 1 1 1

CELL_PARAMETERS angstrom
5.91682758620690 0.00000000000000 0.00000000000000
0.00000000000000 5.91682758620690 0.00000000000000
0.00000000000000 0.00000000000000 5.91682758620690

ATOMIC_POSITIONS angstrom
Si   0.00000000000000 0.00000000000000 0.00000000000000
Si   1.47920689655172 1.47920689655172 1.47920689655172
Si   0.00000000000000 2.95841379310345 2.95841379310345
Si   1.47920689655172 4.43762068965517 4.43762068965517
Si   2.95841379310345 0.00000000000000 2.95841379310345
Si   4.43762068965517 1.47920689655172 4.43762068965517
Si   2.95841379310345 2.95841379310345 0.00000000000000
Si   4.43762068965517 4.43762068965517 1.47920689655172

