&CONTROL
   calculation = 'scf'
   prefix = 'si'
   pseudo_dir = '/home/valeria/Desktop/programs/dftpy/examples/ofpp/EAC/upf/blps/'
   restart_mode = 'from_scratch'
/

&SYSTEM
   ibrav = 0
   nat = 8
   degauss = 0.005
   ecutwfc = 60
   occupations = 'smearing'
   ntyp = 1
/

&ELECTRONS
/

&IONS
/

&CELL
/

&FCP
/

&RISM
/

ATOMIC_SPECIES
Si  28.08 si.lda.upf

K_POINTS automatic
20 20 20 1 1 1

CELL_PARAMETERS angstrom
6.02917241379310 0.00000000000000 0.00000000000000
0.00000000000000 6.02917241379310 0.00000000000000
0.00000000000000 0.00000000000000 6.02917241379310

ATOMIC_POSITIONS angstrom
Si   0.00000000000000 0.00000000000000 0.00000000000000
Si   1.50729310344828 1.50729310344828 1.50729310344828
Si   0.00000000000000 3.01458620689655 3.01458620689655
Si   1.50729310344828 4.52187931034483 4.52187931034483
Si   3.01458620689655 0.00000000000000 3.01458620689655
Si   4.52187931034483 1.50729310344828 4.52187931034483
Si   3.01458620689655 3.01458620689655 0.00000000000000
Si   4.52187931034483 4.52187931034483 1.50729310344828

