&CONTROL
   calculation = 'scf'
   prefix = 'si'
   pseudo_dir = '/home/valeria/Desktop/programs/dftpy/examples/ofpp/EAC/upf/blps/'
   restart_mode = 'from_scratch'
/

&SYSTEM
   ibrav = 0
   nat = 8
   degauss = 0.005
   ecutwfc = 60
   occupations = 'smearing'
   ntyp = 1
/

&ELECTRONS
/

&IONS
/

&CELL
/

&FCP
/

&RISM
/

ATOMIC_SPECIES
Si  28.08 si.lda.upf

K_POINTS automatic
20 20 20 1 1 1

CELL_PARAMETERS angstrom
6.14151724137931 0.00000000000000 0.00000000000000
0.00000000000000 6.14151724137931 0.00000000000000
0.00000000000000 0.00000000000000 6.14151724137931

ATOMIC_POSITIONS angstrom
Si   0.00000000000000 0.00000000000000 0.00000000000000
Si   1.53537931034483 1.53537931034483 1.53537931034483
Si   0.00000000000000 3.07075862068966 3.07075862068966
Si   1.53537931034483 4.60613793103448 4.60613793103448
Si   3.07075862068966 0.00000000000000 3.07075862068966
Si   4.60613793103448 1.53537931034483 4.60613793103448
Si   3.07075862068966 3.07075862068966 0.00000000000000
Si   4.60613793103448 4.60613793103448 1.53537931034483

