&CONTROL
   calculation = 'scf'
   prefix = 'si'
   pseudo_dir = '/home/valeria/Desktop/programs/dftpy/examples/ofpp/EAC/upf/blps/'
   restart_mode = 'from_scratch'
/

&SYSTEM
   ibrav = 0
   nat = 8
   degauss = 0.005
   ecutwfc = 60
   occupations = 'smearing'
   ntyp = 1
/

&ELECTRONS
/

&IONS
/

&CELL
/

&FCP
/

&RISM
/

ATOMIC_SPECIES
Si  28.08 si.lda.upf

K_POINTS automatic
20 20 20 1 1 1

CELL_PARAMETERS angstrom
6.25386206896552 0.00000000000000 0.00000000000000
0.00000000000000 6.25386206896552 0.00000000000000
0.00000000000000 0.00000000000000 6.25386206896552

ATOMIC_POSITIONS angstrom
Si   0.00000000000000 0.00000000000000 0.00000000000000
Si   1.56346551724138 1.56346551724138 1.56346551724138
Si   0.00000000000000 3.12693103448276 3.12693103448276
Si   1.56346551724138 4.69039655172414 4.69039655172414
Si   3.12693103448276 0.00000000000000 3.12693103448276
Si   4.69039655172414 1.56346551724138 4.69039655172414
Si   3.12693103448276 3.12693103448276 0.00000000000000
Si   4.69039655172414 4.69039655172414 1.56346551724138

