&CONTROL
   calculation = 'scf'
   prefix = 'si'
   pseudo_dir = '/home/valeria/Desktop/programs/dftpy/examples/ofpp/EAC/upf/blps/'
   restart_mode = 'from_scratch'
/

&SYSTEM
   ibrav = 0
   nat = 8
   degauss = 0.005
   ecutwfc = 60
   occupations = 'smearing'
   ntyp = 1
/

&ELECTRONS
/

&IONS
/

&CELL
/

&FCP
/

&RISM
/

ATOMIC_SPECIES
Si  28.08 si.lda.upf

K_POINTS automatic
20 20 20 1 1 1

CELL_PARAMETERS angstrom
6.47855172413793 0.00000000000000 0.00000000000000
0.00000000000000 6.47855172413793 0.00000000000000
0.00000000000000 0.00000000000000 6.47855172413793

ATOMIC_POSITIONS angstrom
Si   0.00000000000000 0.00000000000000 0.00000000000000
Si   1.61963793103448 1.61963793103448 1.61963793103448
Si   0.00000000000000 3.23927586206897 3.23927586206897
Si   1.61963793103448 4.85891379310345 4.85891379310345
Si   3.23927586206897 0.00000000000000 3.23927586206897
Si   4.85891379310345 1.61963793103448 4.85891379310345
Si   3.23927586206897 3.23927586206897 0.00000000000000
Si   4.85891379310345 4.85891379310345 1.61963793103448

