&CONTROL
   calculation = 'scf'
   prefix = 'si'
   pseudo_dir = '/home/valeria/Desktop/programs/dftpy/examples/ofpp/EAC/upf/blps/'
   restart_mode = 'from_scratch'
/

&SYSTEM
   ibrav = 0
   nat = 8
   degauss = 0.005
   ecutwfc = 60
   occupations = 'smearing'
   ntyp = 1
/

&ELECTRONS
/

&IONS
/

&CELL
/

&FCP
/

&RISM
/

ATOMIC_SPECIES
Si  28.08 si.lda.upf

K_POINTS automatic
20 20 20 1 1 1

CELL_PARAMETERS angstrom
4.56868965517241 0.00000000000000 0.00000000000000
0.00000000000000 4.56868965517241 0.00000000000000
0.00000000000000 0.00000000000000 4.56868965517241

ATOMIC_POSITIONS angstrom
Si   0.00000000000000 0.00000000000000 0.00000000000000
Si   1.14217241379310 1.14217241379310 1.14217241379310
Si   0.00000000000000 2.28434482758621 2.28434482758621
Si   1.14217241379310 3.42651724137931 3.42651724137931
Si   2.28434482758621 0.00000000000000 2.28434482758621
Si   3.42651724137931 1.14217241379310 3.42651724137931
Si   2.28434482758621 2.28434482758621 0.00000000000000
Si   3.42651724137931 3.42651724137931 1.14217241379310

