&CONTROL
   calculation = 'scf'
   prefix = 'si'
   pseudo_dir = '/home/valeria/Desktop/programs/dftpy/examples/ofpp/EAC/upf/blps/'
   restart_mode = 'from_scratch'
/

&SYSTEM
   ibrav = 0
   nat = 8
   degauss = 0.005
   ecutwfc = 60
   occupations = 'smearing'
   ntyp = 1
/

&ELECTRONS
/

&IONS
/

&CELL
/

&FCP
/

&RISM
/

ATOMIC_SPECIES
Si  28.08 si.lda.upf

K_POINTS automatic
20 20 20 1 1 1

CELL_PARAMETERS angstrom
6.59089655172414 0.00000000000000 0.00000000000000
0.00000000000000 6.59089655172414 0.00000000000000
0.00000000000000 0.00000000000000 6.59089655172414

ATOMIC_POSITIONS angstrom
Si   0.00000000000000 0.00000000000000 0.00000000000000
Si   1.64772413793103 1.64772413793103 1.64772413793103
Si   0.00000000000000 3.29544827586207 3.29544827586207
Si   1.64772413793103 4.94317241379310 4.94317241379310
Si   3.29544827586207 0.00000000000000 3.29544827586207
Si   4.94317241379310 1.64772413793103 4.94317241379310
Si   3.29544827586207 3.29544827586207 0.00000000000000
Si   4.94317241379310 4.94317241379310 1.64772413793103

