&CONTROL
   calculation = 'scf'
   prefix = 'si'
   pseudo_dir = '/home/valeria/Desktop/programs/dftpy/examples/ofpp/EAC/upf/blps/'
   restart_mode = 'from_scratch'
/

&SYSTEM
   ibrav = 0
   nat = 8
   degauss = 0.005
   ecutwfc = 60
   occupations = 'smearing'
   ntyp = 1
/

&ELECTRONS
/

&IONS
/

&CELL
/

&FCP
/

&RISM
/

ATOMIC_SPECIES
Si  28.08 si.lda.upf

K_POINTS automatic
20 20 20 1 1 1

CELL_PARAMETERS angstrom
6.70324137931034 0.00000000000000 0.00000000000000
0.00000000000000 6.70324137931034 0.00000000000000
0.00000000000000 0.00000000000000 6.70324137931034

ATOMIC_POSITIONS angstrom
Si   0.00000000000000 0.00000000000000 0.00000000000000
Si   1.67581034482759 1.67581034482759 1.67581034482759
Si   0.00000000000000 3.35162068965517 3.35162068965517
Si   1.67581034482759 5.02743103448276 5.02743103448276
Si   3.35162068965517 0.00000000000000 3.35162068965517
Si   5.02743103448276 1.67581034482759 5.02743103448276
Si   3.35162068965517 3.35162068965517 0.00000000000000
Si   5.02743103448276 5.02743103448276 1.67581034482759

