&CONTROL
   calculation = 'scf'
   prefix = 'si'
   pseudo_dir = '/home/valeria/Desktop/programs/dftpy/examples/ofpp/EAC/upf/blps/'
   restart_mode = 'from_scratch'
/

&SYSTEM
   ibrav = 0
   nat = 8
   degauss = 0.005
   ecutwfc = 60
   occupations = 'smearing'
   ntyp = 1
/

&ELECTRONS
/

&IONS
/

&CELL
/

&FCP
/

&RISM
/

ATOMIC_SPECIES
Si  28.08 si.lda.upf

K_POINTS automatic
20 20 20 1 1 1

CELL_PARAMETERS angstrom
6.81558620689655 0.00000000000000 0.00000000000000
0.00000000000000 6.81558620689655 0.00000000000000
0.00000000000000 0.00000000000000 6.81558620689655

ATOMIC_POSITIONS angstrom
Si   0.00000000000000 0.00000000000000 0.00000000000000
Si   1.70389655172414 1.70389655172414 1.70389655172414
Si   0.00000000000000 3.40779310344828 3.40779310344828
Si   1.70389655172414 5.11168965517241 5.11168965517241
Si   3.40779310344828 0.00000000000000 3.40779310344828
Si   5.11168965517241 1.70389655172414 5.11168965517241
Si   3.40779310344828 3.40779310344828 0.00000000000000
Si   5.11168965517241 5.11168965517241 1.70389655172414

