&CONTROL
   calculation = 'scf'
   prefix = 'si'
   pseudo_dir = '/home/valeria/Desktop/programs/dftpy/examples/ofpp/EAC/upf/blps/'
   restart_mode = 'from_scratch'
/

&SYSTEM
   ibrav = 0
   nat = 8
   degauss = 0.005
   ecutwfc = 60
   occupations = 'smearing'
   ntyp = 1
/

&ELECTRONS
/

&IONS
/

&CELL
/

&FCP
/

&RISM
/

ATOMIC_SPECIES
Si  28.08 si.lda.upf

K_POINTS automatic
20 20 20 1 1 1

CELL_PARAMETERS angstrom
6.92793103448276 0.00000000000000 0.00000000000000
0.00000000000000 6.92793103448276 0.00000000000000
0.00000000000000 0.00000000000000 6.92793103448276

ATOMIC_POSITIONS angstrom
Si   0.00000000000000 0.00000000000000 0.00000000000000
Si   1.73198275862069 1.73198275862069 1.73198275862069
Si   0.00000000000000 3.46396551724138 3.46396551724138
Si   1.73198275862069 5.19594827586207 5.19594827586207
Si   3.46396551724138 0.00000000000000 3.46396551724138
Si   5.19594827586207 1.73198275862069 5.19594827586207
Si   3.46396551724138 3.46396551724138 0.00000000000000
Si   5.19594827586207 5.19594827586207 1.73198275862069

