&CONTROL
   calculation = 'scf'
   prefix = 'si'
   pseudo_dir = '/home/valeria/Desktop/programs/dftpy/examples/ofpp/EAC/upf/blps/'
   restart_mode = 'from_scratch'
/

&SYSTEM
   ibrav = 0
   nat = 8
   degauss = 0.005
   ecutwfc = 60
   occupations = 'smearing'
   ntyp = 1
/

&ELECTRONS
/

&IONS
/

&CELL
/

&FCP
/

&RISM
/

ATOMIC_SPECIES
Si  28.08 si.lda.upf

K_POINTS automatic
20 20 20 1 1 1

CELL_PARAMETERS angstrom
7.04027586206896 0.00000000000000 0.00000000000000
0.00000000000000 7.04027586206896 0.00000000000000
0.00000000000000 0.00000000000000 7.04027586206896

ATOMIC_POSITIONS angstrom
Si   0.00000000000000 0.00000000000000 0.00000000000000
Si   1.76006896551724 1.76006896551724 1.76006896551724
Si   0.00000000000000 3.52013793103448 3.52013793103448
Si   1.76006896551724 5.28020689655172 5.28020689655172
Si   3.52013793103448 0.00000000000000 3.52013793103448
Si   5.28020689655172 1.76006896551724 5.28020689655172
Si   3.52013793103448 3.52013793103448 0.00000000000000
Si   5.28020689655172 5.28020689655172 1.76006896551724

