&CONTROL
   calculation = 'scf'
   prefix = 'si'
   pseudo_dir = '/home/valeria/Desktop/programs/dftpy/examples/ofpp/EAC/upf/blps/'
   restart_mode = 'from_scratch'
/

&SYSTEM
   ibrav = 0
   nat = 8
   degauss = 0.005
   ecutwfc = 60
   occupations = 'smearing'
   ntyp = 1
/

&ELECTRONS
/

&IONS
/

&CELL
/

&FCP
/

&RISM
/

ATOMIC_SPECIES
Si  28.08 si.lda.upf

K_POINTS automatic
20 20 20 1 1 1

CELL_PARAMETERS angstrom
7.15262068965517 0.00000000000000 0.00000000000000
0.00000000000000 7.15262068965517 0.00000000000000
0.00000000000000 0.00000000000000 7.15262068965517

ATOMIC_POSITIONS angstrom
Si   0.00000000000000 0.00000000000000 0.00000000000000
Si   1.78815517241379 1.78815517241379 1.78815517241379
Si   0.00000000000000 3.57631034482759 3.57631034482759
Si   1.78815517241379 5.36446551724138 5.36446551724138
Si   3.57631034482759 0.00000000000000 3.57631034482759
Si   5.36446551724138 1.78815517241379 5.36446551724138
Si   3.57631034482759 3.57631034482759 0.00000000000000
Si   5.36446551724138 5.36446551724138 1.78815517241379

