&CONTROL
   calculation = 'scf'
   prefix = 'si'
   pseudo_dir = '/home/valeria/Desktop/programs/dftpy/examples/ofpp/EAC/upf/blps/'
   restart_mode = 'from_scratch'
/

&SYSTEM
   ibrav = 0
   nat = 8
   degauss = 0.005
   ecutwfc = 60
   occupations = 'smearing'
   ntyp = 1
/

&ELECTRONS
/

&IONS
/

&CELL
/

&FCP
/

&RISM
/

ATOMIC_SPECIES
Si  28.08 si.lda.upf

K_POINTS automatic
20 20 20 1 1 1

CELL_PARAMETERS angstrom
7.37731034482758 0.00000000000000 0.00000000000000
0.00000000000000 7.37731034482758 0.00000000000000
0.00000000000000 0.00000000000000 7.37731034482758

ATOMIC_POSITIONS angstrom
Si   0.00000000000000 0.00000000000000 0.00000000000000
Si   1.84432758620690 1.84432758620690 1.84432758620690
Si   0.00000000000000 3.68865517241379 3.68865517241379
Si   1.84432758620690 5.53298275862069 5.53298275862069
Si   3.68865517241379 0.00000000000000 3.68865517241379
Si   5.53298275862069 1.84432758620690 5.53298275862069
Si   3.68865517241379 3.68865517241379 0.00000000000000
Si   5.53298275862069 5.53298275862069 1.84432758620690

