&CONTROL
   calculation = 'scf'
   prefix = 'si'
   pseudo_dir = '/home/valeria/Desktop/programs/dftpy/examples/ofpp/EAC/upf/blps/'
   restart_mode = 'from_scratch'
/

&SYSTEM
   ibrav = 0
   nat = 8
   degauss = 0.005
   ecutwfc = 60
   occupations = 'smearing'
   ntyp = 1
/

&ELECTRONS
/

&IONS
/

&CELL
/

&FCP
/

&RISM
/

ATOMIC_SPECIES
Si  28.08 si.lda.upf

K_POINTS automatic
20 20 20 1 1 1

CELL_PARAMETERS angstrom
7.48965517241379 0.00000000000000 0.00000000000000
0.00000000000000 7.48965517241379 0.00000000000000
0.00000000000000 0.00000000000000 7.48965517241379

ATOMIC_POSITIONS angstrom
Si   0.00000000000000 0.00000000000000 0.00000000000000
Si   1.87241379310345 1.87241379310345 1.87241379310345
Si   0.00000000000000 3.74482758620690 3.74482758620690
Si   1.87241379310345 5.61724137931034 5.61724137931034
Si   3.74482758620690 0.00000000000000 3.74482758620690
Si   5.61724137931034 1.87241379310345 5.61724137931034
Si   3.74482758620690 3.74482758620690 0.00000000000000
Si   5.61724137931034 5.61724137931034 1.87241379310345

