&CONTROL
   calculation = 'scf'
   prefix = 'si'
   pseudo_dir = '/home/valeria/Desktop/programs/dftpy/examples/ofpp/EAC/upf/blps/'
   restart_mode = 'from_scratch'
/

&SYSTEM
   ibrav = 0
   nat = 8
   degauss = 0.005
   ecutwfc = 60
   occupations = 'smearing'
   ntyp = 1
/

&ELECTRONS
/

&IONS
/

&CELL
/

&FCP
/

&RISM
/

ATOMIC_SPECIES
Si  28.08 si.lda.upf

K_POINTS automatic
20 20 20 1 1 1

CELL_PARAMETERS angstrom
4.68103448275862 0.00000000000000 0.00000000000000
0.00000000000000 4.68103448275862 0.00000000000000
0.00000000000000 0.00000000000000 4.68103448275862

ATOMIC_POSITIONS angstrom
Si   0.00000000000000 0.00000000000000 0.00000000000000
Si   1.17025862068966 1.17025862068966 1.17025862068966
Si   0.00000000000000 2.34051724137931 2.34051724137931
Si   1.17025862068966 3.51077586206897 3.51077586206897
Si   2.34051724137931 0.00000000000000 2.34051724137931
Si   3.51077586206897 1.17025862068966 3.51077586206897
Si   2.34051724137931 2.34051724137931 0.00000000000000
Si   3.51077586206897 3.51077586206897 1.17025862068966

