&CONTROL
   calculation = 'scf'
   prefix = 'si'
   pseudo_dir = '/home/valeria/Desktop/programs/dftpy/examples/ofpp/EAC/upf/blps/'
   restart_mode = 'from_scratch'
/

&SYSTEM
   ibrav = 0
   nat = 8
   degauss = 0.005
   ecutwfc = 60
   occupations = 'smearing'
   ntyp = 1
/

&ELECTRONS
/

&IONS
/

&CELL
/

&FCP
/

&RISM
/

ATOMIC_SPECIES
Si  28.08 si.lda.upf

K_POINTS automatic
20 20 20 1 1 1

CELL_PARAMETERS angstrom
4.90572413793103 0.00000000000000 0.00000000000000
0.00000000000000 4.90572413793103 0.00000000000000
0.00000000000000 0.00000000000000 4.90572413793103

ATOMIC_POSITIONS angstrom
Si   0.00000000000000 0.00000000000000 0.00000000000000
Si   1.22643103448276 1.22643103448276 1.22643103448276
Si   0.00000000000000 2.45286206896552 2.45286206896552
Si   1.22643103448276 3.67929310344828 3.67929310344828
Si   2.45286206896552 0.00000000000000 2.45286206896552
Si   3.67929310344828 1.22643103448276 3.67929310344828
Si   2.45286206896552 2.45286206896552 0.00000000000000
Si   3.67929310344828 3.67929310344828 1.22643103448276

