&CONTROL
   calculation = 'scf'
   prefix = 'si'
   pseudo_dir = '/home/valeria/Desktop/programs/dftpy/examples/ofpp/EAC/upf/blps/'
   restart_mode = 'from_scratch'
/

&SYSTEM
   ibrav = 0
   nat = 8
   degauss = 0.005
   ecutwfc = 60
   occupations = 'smearing'
   ntyp = 1
/

&ELECTRONS
/

&IONS
/

&CELL
/

&FCP
/

&RISM
/

ATOMIC_SPECIES
Si  28.08 si.lda.upf

K_POINTS automatic
20 20 20 1 1 1

CELL_PARAMETERS angstrom
5.01806896551724 0.00000000000000 0.00000000000000
0.00000000000000 5.01806896551724 0.00000000000000
0.00000000000000 0.00000000000000 5.01806896551724

ATOMIC_POSITIONS angstrom
Si   0.00000000000000 0.00000000000000 0.00000000000000
Si   1.25451724137931 1.25451724137931 1.25451724137931
Si   0.00000000000000 2.50903448275862 2.50903448275862
Si   1.25451724137931 3.76355172413793 3.76355172413793
Si   2.50903448275862 0.00000000000000 2.50903448275862
Si   3.76355172413793 1.25451724137931 3.76355172413793
Si   2.50903448275862 2.50903448275862 0.00000000000000
Si   3.76355172413793 3.76355172413793 1.25451724137931

