&CONTROL
   calculation = 'scf'
   prefix = 'si'
   pseudo_dir = '/home/valeria/Desktop/programs/dftpy/examples/ofpp/EAC/upf/blps/'
   restart_mode = 'from_scratch'
/

&SYSTEM
   ibrav = 0
   nat = 8
   degauss = 0.005
   ecutwfc = 60
   occupations = 'smearing'
   ntyp = 1
/

&ELECTRONS
/

&IONS
/

&CELL
/

&FCP
/

&RISM
/

ATOMIC_SPECIES
Si  28.08 si.lda.upf

K_POINTS automatic
20 20 20 1 1 1

CELL_PARAMETERS angstrom
5.13041379310345 0.00000000000000 0.00000000000000
0.00000000000000 5.13041379310345 0.00000000000000
0.00000000000000 0.00000000000000 5.13041379310345

ATOMIC_POSITIONS angstrom
Si   0.00000000000000 0.00000000000000 0.00000000000000
Si   1.28260344827586 1.28260344827586 1.28260344827586
Si   0.00000000000000 2.56520689655172 2.56520689655172
Si   1.28260344827586 3.84781034482759 3.84781034482759
Si   2.56520689655172 0.00000000000000 2.56520689655172
Si   3.84781034482759 1.28260344827586 3.84781034482759
Si   2.56520689655172 2.56520689655172 0.00000000000000
Si   3.84781034482759 3.84781034482759 1.28260344827586

