&CONTROL
   calculation = 'scf'
   prefix = 'si'
   pseudo_dir = '/home/valeria/Desktop/programs/dftpy/examples/ofpp/EAC/upf/blps/'
   restart_mode = 'from_scratch'
/

&SYSTEM
   ibrav = 0
   nat = 8
   degauss = 0.005
   ecutwfc = 60
   occupations = 'smearing'
   ntyp = 1
/

&ELECTRONS
/

&IONS
/

&CELL
/

&FCP
/

&RISM
/

ATOMIC_SPECIES
Si  28.08 si.lda.upf

K_POINTS automatic
20 20 20 1 1 1

CELL_PARAMETERS angstrom
5.24275862068966 0.00000000000000 0.00000000000000
0.00000000000000 5.24275862068966 0.00000000000000
0.00000000000000 0.00000000000000 5.24275862068966

ATOMIC_POSITIONS angstrom
Si   0.00000000000000 0.00000000000000 0.00000000000000
Si   1.31068965517241 1.31068965517241 1.31068965517241
Si   0.00000000000000 2.62137931034483 2.62137931034483
Si   1.31068965517241 3.93206896551724 3.93206896551724
Si   2.62137931034483 0.00000000000000 2.62137931034483
Si   3.93206896551724 1.31068965517241 3.93206896551724
Si   2.62137931034483 2.62137931034483 0.00000000000000
Si   3.93206896551724 3.93206896551724 1.31068965517241

