&CONTROL
   calculation = 'scf'
   prefix = 'si'
   pseudo_dir = '/home/valeria/Desktop/programs/dftpy/examples/ofpp/EAC/upf/blps/'
   restart_mode = 'from_scratch'
/

&SYSTEM
   ibrav = 0
   nat = 8
   degauss = 0.005
   ecutwfc = 60
   occupations = 'smearing'
   ntyp = 1
/

&ELECTRONS
/

&IONS
/

&CELL
/

&FCP
/

&RISM
/

ATOMIC_SPECIES
Si  28.08 si.lda.upf

K_POINTS automatic
20 20 20 1 1 1

CELL_PARAMETERS angstrom
5.35510344827586 0.00000000000000 0.00000000000000
0.00000000000000 5.35510344827586 0.00000000000000
0.00000000000000 0.00000000000000 5.35510344827586

ATOMIC_POSITIONS angstrom
Si   0.00000000000000 0.00000000000000 0.00000000000000
Si   1.33877586206897 1.33877586206897 1.33877586206897
Si   0.00000000000000 2.67755172413793 2.67755172413793
Si   1.33877586206897 4.01632758620690 4.01632758620690
Si   2.67755172413793 0.00000000000000 2.67755172413793
Si   4.01632758620690 1.33877586206897 4.01632758620690
Si   2.67755172413793 2.67755172413793 0.00000000000000
Si   4.01632758620690 4.01632758620690 1.33877586206897

