&CONTROL
   calculation = 'scf'
   prefix = 'si'
   pseudo_dir = '/Users/valeria/Documents/PP/ofpp/EAC/upf/blps/'
   restart_mode = 'from_scratch'
/

&SYSTEM
   ibrav = 0
   nat = 8
   degauss = 0.005
   ecutwfc = 60
   occupations = 'smearing'
   ntyp = 1
/

&ELECTRONS
/

&IONS
/

&CELL
/

&FCP
/

&RISM
/

ATOMIC_SPECIES
Si  28.08 si.lda.upf

K_POINTS automatic
20 20 20 1 1 1

CELL_PARAMETERS angstrom
10863.96089129654865 0.00000000000000 0.00000000000000
0.00000000000000 10863.96089129654865 0.00000000000000
0.00000000000000 0.00000000000000 10863.96089129654865

ATOMIC_POSITIONS angstrom
Si   0.00000000000000 0.00000000000000 0.00000000000000
Si   2715.99022282413716 2715.99022282413716 2715.99022282413716
Si   0.00000000000000 5431.98044564827433 5431.98044564827433
Si   2715.99022282413716 8147.97066847241331 8147.97066847241331
Si   5431.98044564827433 0.00000000000000 5431.98044564827433
Si   8147.97066847241331 2715.99022282413716 8147.97066847241331
Si   5431.98044564827433 5431.98044564827433 0.00000000000000
Si   8147.97066847241331 8147.97066847241331 2715.99022282413716

