&CONTROL
   calculation = 'scf'
   prefix = 'si'
   pseudo_dir = '/home/vr371/Projects/PP/ofpp/EAC/upf/blps/'
   restart_mode = 'from_scratch'
/

&SYSTEM
   ibrav = 0
   nat = 8
   degauss = 0.005
   ecutwfc = 60
   occupations = 'smearing'
   ntyp = 1
/

&ELECTRONS
/

&IONS
/

&CELL
/

&FCP
/

&RISM
/

ATOMIC_SPECIES
Si  28.08 si.lda.upf

K_POINTS automatic
20 20 20 1 1 1

CELL_PARAMETERS angstrom
8.68800000000000 0.00000000000000 0.00000000000000
0.00000000000000 8.68800000000000 0.00000000000000
0.00000000000000 0.00000000000000 8.68800000000000

ATOMIC_POSITIONS angstrom
Si   0.00000000000000 0.00000000000000 0.00000000000000
Si   2.17200000000000 2.17200000000000 2.17200000000000
Si   0.00000000000000 4.34400000000000 4.34400000000000
Si   2.17200000000000 6.51600000000000 6.51600000000000
Si   4.34400000000000 0.00000000000000 4.34400000000000
Si   6.51600000000000 2.17200000000000 6.51600000000000
Si   4.34400000000000 4.34400000000000 0.00000000000000
Si   6.51600000000000 6.51600000000000 2.17200000000000

