&CONTROL
   calculation = 'scf'
   prefix = 'si'
   pseudo_dir = '/home/vr371/Projects/PP/ofpp/EAC/upf/blps/'
   restart_mode = 'from_scratch'
/

&SYSTEM
   ibrav = 0
   nat = 8
   degauss = 0.005
   ecutwfc = 60
   occupations = 'smearing'
   ntyp = 1
/

&ELECTRONS
/

&IONS
/

&CELL
/

&FCP
/

&RISM
/

ATOMIC_SPECIES
Si  28.08 si.lda.upf

K_POINTS automatic
20 20 20 1 1 1

CELL_PARAMETERS angstrom
11.40300000000000 0.00000000000000 0.00000000000000
0.00000000000000 11.40300000000000 0.00000000000000
0.00000000000000 0.00000000000000 11.40300000000000

ATOMIC_POSITIONS angstrom
Si   0.00000000000000 0.00000000000000 0.00000000000000
Si   2.85075000000000 2.85075000000000 2.85075000000000
Si   0.00000000000000 5.70150000000000 5.70150000000000
Si   2.85075000000000 8.55225000000000 8.55225000000000
Si   5.70150000000000 0.00000000000000 5.70150000000000
Si   8.55225000000000 2.85075000000000 8.55225000000000
Si   5.70150000000000 5.70150000000000 0.00000000000000
Si   8.55225000000000 8.55225000000000 2.85075000000000

