&CONTROL
   calculation = 'scf'
   prefix = 'si'
   pseudo_dir = '/home/vr371/Projects/PP/ofpp/EAC/upf/blps/'
   restart_mode = 'from_scratch'
/

&SYSTEM
   ibrav = 0
   nat = 8
   degauss = 0.005
   ecutwfc = 60
   occupations = 'smearing'
   ntyp = 1
/

&ELECTRONS
/

&IONS
/

&CELL
/

&FCP
/

&RISM
/

ATOMIC_SPECIES
Si  28.08 si.lda.upf

K_POINTS automatic
20 20 20 1 1 1

CELL_PARAMETERS angstrom
12.48900000000000 0.00000000000000 0.00000000000000
0.00000000000000 12.48900000000000 0.00000000000000
0.00000000000000 0.00000000000000 12.48900000000000

ATOMIC_POSITIONS angstrom
Si   0.00000000000000 0.00000000000000 0.00000000000000
Si   3.12225000000000 3.12225000000000 3.12225000000000
Si   0.00000000000000 6.24450000000000 6.24450000000000
Si   3.12225000000000 9.36675000000000 9.36675000000000
Si   6.24450000000000 0.00000000000000 6.24450000000000
Si   9.36675000000000 3.12225000000000 9.36675000000000
Si   6.24450000000000 6.24450000000000 0.00000000000000
Si   9.36675000000000 9.36675000000000 3.12225000000000

